SnO2                                    
   1.00000000000000     
     9.4320271667224951    0.0000000000000000    0.0000000000000000
     0.0000000000000000    9.4320271667224951    0.0000000000000000
     0.0000000000000000    0.0000000000000000    6.3058068431916565
   O    Sn   H 
    31    16     1
Selective dynamics
Direct
  0.1000600835511140  0.9077102545134206  0.7536630242368839   T   T   T
  0.4023996582357274  0.5958350872478905  0.7501473277746322   T   T   T
  0.9032119805809433  0.5966184083244418  0.7491089243237390   T   T   T
  0.6532843098524609  0.1519464880875973  0.0000000000000000   T   T   T
  0.8468994157397830  0.3471795665088462  0.0000000000000000   T   T   T
  0.9077102545134206  0.1000600835511140  0.2463369757631161   T   T   T
  0.5958350872478905  0.4023996582357274  0.2498526722253678   T   T   T
  0.6530185438419549  0.1521025098311325  0.5000000000000000   T   T   T
  0.3459187433228819  0.8475001285044619  0.5000000000000000   T   T   T
  0.8475001285044619  0.3459187433228819  0.5000000000000000   T   T   T
  0.5958350872478905  0.4023996582357274  0.7501473277746322   T   T   T
  0.6527767759017221  0.6527767759017221  0.0000000000000000   T   T   T
  0.8438599717147818  0.8438599717147818  0.0000000000000000   T   T   T
  0.9032119805809433  0.5966184083244418  0.2508910756762610   T   T   T
  0.5966184083244418  0.9032119805809433  0.2508910756762610   T   T   T
  0.6528467427424308  0.6528467427424308  0.5000000000000000   T   T   T
  0.8480977139920971  0.8480977139920971  0.5000000000000000   T   T   T
  0.9077102545134206  0.1000600835511140  0.7536630242368839   T   T   T
  0.1521025098311325  0.6530185438419549  0.5000000000000000   T   T   T
  0.5966184083244418  0.9032119805809433  0.7491089243237390   T   T   T
  0.3491992226455830  0.3491992226455830  0.5000000000000000   T   T   T
  0.1000600835511140  0.9077102545134206  0.2463369757631161   T   T   T
  0.4023996582357274  0.5958350872478905  0.2498526722253678   T   T   T
  0.3471795665088462  0.8468994157397830  0.0000000000000000   T   T   T
  0.1545154673835676  0.1545154673835676  0.5000000000000000   T   T   T
  0.1519464880875973  0.6532843098524609  0.0000000000000000   T   T   T
  0.0964677382757912  0.3987416177537894  0.2470005773958487   T   T   T
  0.3987416177537894  0.0964677382757912  0.7529994226041512   T   T   T
  0.0964677382757912  0.3987416177537894  0.7529994226041512   T   T   T
  0.3447183958290066  0.3447183958290066  0.0000000000000000   T   T   T
  0.3987416177537894  0.0964677382757912  0.2470005773958487   T   T   T
  0.5014444807119820  0.5014444807119820  0.5000000000000000   T   T   T
  0.7486027330318678  0.7486027330318678  0.7484764651537682   T   T   T
  0.2538407889891727  0.2538407889891727  0.2544896271239520   T   T   T
  0.0011479456316457  0.0011479456316457  0.5000000000000000   T   T   T
  0.7486027330318678  0.7486027330318678  0.2515235348462318   T   T   T
 -0.0001530541518859  0.4989698645716548  0.5000000000000000   T   T   T
  0.2538407889891727  0.2538407889891727  0.7455103728760479   T   T   T
  0.2507191422580847  0.7494149730022668  0.7504719510060960   T   T   T
  0.7494149730022668  0.2507191422580847  0.7504719510060960   T   T   T
  0.4989698645716548 -0.0001530541518859  0.5000000000000000   T   T   T
 -0.0013555497565329  0.5009564239072186  0.0000000000000000   T   T   T
  0.2507191422580847  0.7494149730022668  0.2495280489939041   T   T   T
  0.7494149730022668  0.2507191422580847  0.2495280489939041   T   T   T
  0.5009564239072186 -0.0013555497565329  0.0000000000000000   T   T   T
  0.5008325986835727  0.5008325986835727  0.0000000000000000   T   T   T
 -0.0081231193009121 -0.0081231193009121  0.0000000000000000   T   T   T
  0.1551714822759300  0.1551714822759300  0.0000000000000000   T   T   T
 
  0.00000000E+00  0.00000000E+00  0.00000000E+00
  0.00000000E+00  0.00000000E+00  0.00000000E+00
  0.00000000E+00  0.00000000E+00  0.00000000E+00
  0.00000000E+00  0.00000000E+00  0.00000000E+00
  0.00000000E+00  0.00000000E+00  0.00000000E+00
  0.00000000E+00  0.00000000E+00  0.00000000E+00
  0.00000000E+00  0.00000000E+00  0.00000000E+00
  0.00000000E+00  0.00000000E+00  0.00000000E+00
  0.00000000E+00  0.00000000E+00  0.00000000E+00
  0.00000000E+00  0.00000000E+00  0.00000000E+00
  0.00000000E+00  0.00000000E+00  0.00000000E+00
  0.00000000E+00  0.00000000E+00  0.00000000E+00
  0.00000000E+00  0.00000000E+00  0.00000000E+00
  0.00000000E+00  0.00000000E+00  0.00000000E+00
  0.00000000E+00  0.00000000E+00  0.00000000E+00
  0.00000000E+00  0.00000000E+00  0.00000000E+00
  0.00000000E+00  0.00000000E+00  0.00000000E+00
  0.00000000E+00  0.00000000E+00  0.00000000E+00
  0.00000000E+00  0.00000000E+00  0.00000000E+00
  0.00000000E+00  0.00000000E+00  0.00000000E+00
  0.00000000E+00  0.00000000E+00  0.00000000E+00
  0.00000000E+00  0.00000000E+00  0.00000000E+00
  0.00000000E+00  0.00000000E+00  0.00000000E+00
  0.00000000E+00  0.00000000E+00  0.00000000E+00
  0.00000000E+00  0.00000000E+00  0.00000000E+00
  0.00000000E+00  0.00000000E+00  0.00000000E+00
  0.00000000E+00  0.00000000E+00  0.00000000E+00
  0.00000000E+00  0.00000000E+00  0.00000000E+00
  0.00000000E+00  0.00000000E+00  0.00000000E+00
  0.00000000E+00  0.00000000E+00  0.00000000E+00
  0.00000000E+00  0.00000000E+00  0.00000000E+00
  0.00000000E+00  0.00000000E+00  0.00000000E+00
  0.00000000E+00  0.00000000E+00  0.00000000E+00
  0.00000000E+00  0.00000000E+00  0.00000000E+00
  0.00000000E+00  0.00000000E+00  0.00000000E+00
  0.00000000E+00  0.00000000E+00  0.00000000E+00
  0.00000000E+00  0.00000000E+00  0.00000000E+00
  0.00000000E+00  0.00000000E+00  0.00000000E+00
  0.00000000E+00  0.00000000E+00  0.00000000E+00
  0.00000000E+00  0.00000000E+00  0.00000000E+00
  0.00000000E+00  0.00000000E+00  0.00000000E+00
  0.00000000E+00  0.00000000E+00  0.00000000E+00
  0.00000000E+00  0.00000000E+00  0.00000000E+00
  0.00000000E+00  0.00000000E+00  0.00000000E+00
  0.00000000E+00  0.00000000E+00  0.00000000E+00
  0.00000000E+00  0.00000000E+00  0.00000000E+00
  0.00000000E+00  0.00000000E+00  0.00000000E+00
  0.00000000E+00  0.00000000E+00  0.00000000E+00
