SnO2                                    
   1.00000000000000     
     9.4320271667224951    0.0000000000000000    0.0000000000000000
     0.0000000000000000    9.4320271667224951    0.0000000000000000
     0.0000000000000000    0.0000000000000000    6.3058068431916565
   O    Sn   F 
    31    16     1
Selective dynamics
Direct
  0.0981016393819969  0.9064687062504434  0.7534183238699157   T   T   T
  0.4023177666551968  0.5961880537178637  0.7504508446308505   T   T   T
  0.9026571346736988  0.5961670968613995  0.7493180288553202   T   T   T
  0.6529214438467759  0.1521225760033231 -0.0000000000000000   T   T   T
  0.8475336828677773  0.3466574952682403 -0.0000000000000000   T   T   T
  0.9054911970809894  0.0979384843456812  0.2468273758884304   T   T   T
  0.5960324259895423  0.4027884468362417  0.2494169450666425   T   T   T
  0.6521553512709873  0.1528509685485190  0.5000000000000000   T   T   T
  0.3454142762739119  0.8479648268998291  0.5000000000000000   T   T   T
  0.8477830455350014  0.3456208190547680  0.5000000000000000   T   T   T
  0.5960324259895423  0.4027884468362417  0.7505830549333576   T   T   T
  0.6522324506305404  0.6527424771953169 -0.0000000000000000   T   T   T
  0.8419443198093443  0.8421806590366105 -0.0000000000000000   T   T   T
  0.9026571346736988  0.5961670968613995  0.2506819711446795   T   T   T
  0.5958599821563998  0.9032336977195302  0.2508504408549415   T   T   T
  0.6531232614223521  0.6534794111348300  0.5000000000000000   T   T   T
  0.8474870228786113  0.8473919316311962  0.5000000000000000   T   T   T
  0.9054911970809894  0.0979384843456812  0.7531726241115699   T   T   T
  0.1520170267707524  0.6531901813338259  0.5000000000000000   T   T   T
  0.5958599821563998  0.9032336977195302  0.7491495591450583   T   T   T
  0.3524283687951988  0.3524121428237049  0.5000000000000000   T   T   T
  0.0981016393819969  0.9064687062504434  0.2465816761300849   T   T   T
  0.4023177666551968  0.5961880537178637  0.2495491553691497   T   T   T
  0.3468121650239007  0.8474094141584418 -0.0000000000000000   T   T   T
  0.1556222300090955  0.1566663884322401  0.5000000000000000   T   T   T
  0.1515866576223753  0.6536321260036893 -0.0000000000000000   T   T   T
  0.0981051625930766  0.4000561889057751  0.2480852954581358   T   T   T
  0.3990189914092921  0.0981300933843996  0.7520342929315605   T   T   T
  0.0981051625930766  0.4000561889057751  0.7519147045418637   T   T   T
  0.3442793739330406  0.3445483337813754 -0.0000000000000000   T   T   T
  0.3990189914092921  0.0981300933843996  0.2479657070684397   T   T   T
  0.5033236471083223  0.5035531259714991  0.5000000000000000   T   T   T
  0.7481119176933106  0.7485418938254005  0.7484050308756900   T   T   T
  0.2570513287286206  0.2575821027206417  0.2586874521424723   T   T   T
  0.0010983752026293  0.0013053876363773  0.5000000000000000   T   T   T
  0.7481119176933106  0.7485418938254005  0.2515949691243102   T   T   T
 -0.0003462200683960  0.4994567815956665  0.5000000000000000   T   T   T
  0.2570513287286206  0.2575821027206417  0.7413125478575291   T   T   T
  0.2500895231418441  0.7499134171623379  0.7503792437720529   T   T   T
  0.7495047592777948  0.2503577315293816  0.7503423815829230   T   T   T
  0.4987622163922771  0.0001611113728609  0.5000000000000000   T   T   T
 -0.0010500061079078  0.5006626076557266 -0.0000000000000000   T   T   T
  0.2500895231418441  0.7499134171623379  0.2496207562279469   T   T   T
  0.7495047592777948  0.2503577315293816  0.2496576184170773   T   T   T
  0.5002050945949812 -0.0007150130136575 -0.0000000000000000   T   T   T
  0.5008296363588089  0.5011735612310732 -0.0000000000000000   T   T   T
 -0.0115404380511764 -0.0110268153826849 -0.0000000000000000   T   T   T
  0.1506933603172727  0.1518276751090348 -0.0000000000000000   T   T   T
 
  0.00000000E+00  0.00000000E+00  0.00000000E+00
  0.00000000E+00  0.00000000E+00  0.00000000E+00
  0.00000000E+00  0.00000000E+00  0.00000000E+00
  0.00000000E+00  0.00000000E+00  0.00000000E+00
  0.00000000E+00  0.00000000E+00  0.00000000E+00
  0.00000000E+00  0.00000000E+00  0.00000000E+00
  0.00000000E+00  0.00000000E+00  0.00000000E+00
  0.00000000E+00  0.00000000E+00  0.00000000E+00
  0.00000000E+00  0.00000000E+00  0.00000000E+00
  0.00000000E+00  0.00000000E+00  0.00000000E+00
  0.00000000E+00  0.00000000E+00  0.00000000E+00
  0.00000000E+00  0.00000000E+00  0.00000000E+00
  0.00000000E+00  0.00000000E+00  0.00000000E+00
  0.00000000E+00  0.00000000E+00  0.00000000E+00
  0.00000000E+00  0.00000000E+00  0.00000000E+00
  0.00000000E+00  0.00000000E+00  0.00000000E+00
  0.00000000E+00  0.00000000E+00  0.00000000E+00
  0.00000000E+00  0.00000000E+00  0.00000000E+00
  0.00000000E+00  0.00000000E+00  0.00000000E+00
  0.00000000E+00  0.00000000E+00  0.00000000E+00
  0.00000000E+00  0.00000000E+00  0.00000000E+00
  0.00000000E+00  0.00000000E+00  0.00000000E+00
  0.00000000E+00  0.00000000E+00  0.00000000E+00
  0.00000000E+00  0.00000000E+00  0.00000000E+00
  0.00000000E+00  0.00000000E+00  0.00000000E+00
  0.00000000E+00  0.00000000E+00  0.00000000E+00
  0.00000000E+00  0.00000000E+00  0.00000000E+00
  0.00000000E+00  0.00000000E+00  0.00000000E+00
  0.00000000E+00  0.00000000E+00  0.00000000E+00
  0.00000000E+00  0.00000000E+00  0.00000000E+00
  0.00000000E+00  0.00000000E+00  0.00000000E+00
  0.00000000E+00  0.00000000E+00  0.00000000E+00
  0.00000000E+00  0.00000000E+00  0.00000000E+00
  0.00000000E+00  0.00000000E+00  0.00000000E+00
  0.00000000E+00  0.00000000E+00  0.00000000E+00
  0.00000000E+00  0.00000000E+00  0.00000000E+00
  0.00000000E+00  0.00000000E+00  0.00000000E+00
  0.00000000E+00  0.00000000E+00  0.00000000E+00
  0.00000000E+00  0.00000000E+00  0.00000000E+00
  0.00000000E+00  0.00000000E+00  0.00000000E+00
  0.00000000E+00  0.00000000E+00  0.00000000E+00
  0.00000000E+00  0.00000000E+00  0.00000000E+00
  0.00000000E+00  0.00000000E+00  0.00000000E+00
  0.00000000E+00  0.00000000E+00  0.00000000E+00
  0.00000000E+00  0.00000000E+00  0.00000000E+00
  0.00000000E+00  0.00000000E+00  0.00000000E+00
  0.00000000E+00  0.00000000E+00  0.00000000E+00
  0.00000000E+00  0.00000000E+00  0.00000000E+00
