SnO2                                    
   1.00000000000000     
     9.4320271667224951    0.0000000000000000    0.0000000000000000
     0.0000000000000000    9.4320271667224951    0.0000000000000000
     0.0000000000000000    0.0000000000000000    6.3058068431916565
   O    Sn   F 
    31    16     1
Selective dynamics
Direct
  0.0979644945566328  0.9050108810908629  0.7530242245231220   T   T   T
  0.4025807492103566  0.5964839037443509  0.7503898522538589   T   T   T
  0.9028922376115998  0.5970939414357649  0.7495380746215905   T   T   T
  0.6527978485439886  0.1524326512304260  0.0000000000000000   T   T   T
  0.8477342019010528  0.3471766869608078  0.0000000000000000   T   T   T
  0.9050108810908629  0.0979644945566328  0.2469757754768779   T   T   T
  0.5964839037443509  0.4025807492103566  0.2496101477461410   T   T   T
  0.6526163662529459  0.1525323519842534  0.5000000000000000   T   T   T
  0.3466322285415323  0.8474393349239643  0.5000000000000000   T   T   T
  0.8474393349239643  0.3466322285415323  0.5000000000000000   T   T   T
  0.5964839037443509  0.4025807492103566  0.7503898522538589   T   T   T
  0.6519679966763836  0.6519679966763836  0.0000000000000000   T   T   T
  0.8419621985747211  0.8419621985747211  0.0000000000000000   T   T   T
  0.9028922376115998  0.5970939414357649  0.2504619253784094   T   T   T
  0.5970939414357649  0.9028922376115998  0.2504619253784094   T   T   T
  0.6531392045582554  0.6531392045582554  0.5000000000000000   T   T   T
  0.8472364618245752  0.8472364618245752  0.5000000000000000   T   T   T
  0.9050108810908629  0.0979644945566328  0.7530242245231220   T   T   T
  0.1525323519842534  0.6526163662529459  0.5000000000000000   T   T   T
  0.5970939414357649  0.9028922376115998  0.7495380746215905   T   T   T
  0.3526563559055838  0.3526563559055838  0.5000000000000000   T   T   T
  0.0979644945566328  0.9050108810908629  0.2469757754768779   T   T   T
  0.4025807492103566  0.5964839037443509  0.2496101477461410   T   T   T
  0.3471766869608078  0.8477342019010528  0.0000000000000000   T   T   T
  0.1554720425991351  0.1554720425991351  0.5000000000000000   T   T   T
  0.1524326512304260  0.6527978485439886  0.0000000000000000   T   T   T
  0.0976736609052909  0.3999519027457087  0.2483715526417589   T   T   T
  0.3999519027457087  0.0976736609052909  0.7516284473582409   T   T   T
  0.0976736609052909  0.3999519027457087  0.7516284473582409   T   T   T
  0.3449835898532519  0.3449835898532519  0.0000000000000000   T   T   T
  0.3999519027457087  0.0976736609052909  0.2483715526417589   T   T   T
  0.5033354333839960  0.5033354333839960  0.5000000000000000   T   T   T
  0.7483056593463614  0.7483056593463614  0.7485960499992219   T   T   T
  0.2569592452622873  0.2569592452622873  0.2586871058655335   T   T   T
  0.0008718352164287  0.0008718352164287  0.5000000000000000   T   T   T
  0.7483056593463614  0.7483056593463614  0.2514039500007782   T   T   T
 -0.0002716655196865  0.4996954958781570  0.5000000000000000   T   T   T
  0.2569592452622873  0.2569592452622873  0.7413128941344664   T   T   T
  0.2503558583845660  0.7498912808069328  0.7502368534771705   T   T   T
  0.7498912808069328  0.2503558583845660  0.7502368534771705   T   T   T
  0.4996954958781570 -0.0002716655196865  0.5000000000000000   T   T   T
 -0.0006649525135177  0.5006728561020645  0.0000000000000000   T   T   T
  0.2503558583845660  0.7498912808069328  0.2497631465228294   T   T   T
  0.7498912808069328  0.2503558583845660  0.2497631465228294   T   T   T
  0.5006728561020645 -0.0006649525135177  0.0000000000000000   T   T   T
  0.5006066870782419  0.5006066870782419  0.0000000000000000   T   T   T
 -0.0112424928544544 -0.0112424928544544  0.0000000000000000   T   T   T
  0.1498896526964630  0.1498896526964630  0.0000000000000000   T   T   T
 
  0.00000000E+00  0.00000000E+00  0.00000000E+00
  0.00000000E+00  0.00000000E+00  0.00000000E+00
  0.00000000E+00  0.00000000E+00  0.00000000E+00
  0.00000000E+00  0.00000000E+00  0.00000000E+00
  0.00000000E+00  0.00000000E+00  0.00000000E+00
  0.00000000E+00  0.00000000E+00  0.00000000E+00
  0.00000000E+00  0.00000000E+00  0.00000000E+00
  0.00000000E+00  0.00000000E+00  0.00000000E+00
  0.00000000E+00  0.00000000E+00  0.00000000E+00
  0.00000000E+00  0.00000000E+00  0.00000000E+00
  0.00000000E+00  0.00000000E+00  0.00000000E+00
  0.00000000E+00  0.00000000E+00  0.00000000E+00
  0.00000000E+00  0.00000000E+00  0.00000000E+00
  0.00000000E+00  0.00000000E+00  0.00000000E+00
  0.00000000E+00  0.00000000E+00  0.00000000E+00
  0.00000000E+00  0.00000000E+00  0.00000000E+00
  0.00000000E+00  0.00000000E+00  0.00000000E+00
  0.00000000E+00  0.00000000E+00  0.00000000E+00
  0.00000000E+00  0.00000000E+00  0.00000000E+00
  0.00000000E+00  0.00000000E+00  0.00000000E+00
  0.00000000E+00  0.00000000E+00  0.00000000E+00
  0.00000000E+00  0.00000000E+00  0.00000000E+00
  0.00000000E+00  0.00000000E+00  0.00000000E+00
  0.00000000E+00  0.00000000E+00  0.00000000E+00
  0.00000000E+00  0.00000000E+00  0.00000000E+00
  0.00000000E+00  0.00000000E+00  0.00000000E+00
  0.00000000E+00  0.00000000E+00  0.00000000E+00
  0.00000000E+00  0.00000000E+00  0.00000000E+00
  0.00000000E+00  0.00000000E+00  0.00000000E+00
  0.00000000E+00  0.00000000E+00  0.00000000E+00
  0.00000000E+00  0.00000000E+00  0.00000000E+00
  0.00000000E+00  0.00000000E+00  0.00000000E+00
  0.00000000E+00  0.00000000E+00  0.00000000E+00
  0.00000000E+00  0.00000000E+00  0.00000000E+00
  0.00000000E+00  0.00000000E+00  0.00000000E+00
  0.00000000E+00  0.00000000E+00  0.00000000E+00
  0.00000000E+00  0.00000000E+00  0.00000000E+00
  0.00000000E+00  0.00000000E+00  0.00000000E+00
  0.00000000E+00  0.00000000E+00  0.00000000E+00
  0.00000000E+00  0.00000000E+00  0.00000000E+00
  0.00000000E+00  0.00000000E+00  0.00000000E+00
  0.00000000E+00  0.00000000E+00  0.00000000E+00
  0.00000000E+00  0.00000000E+00  0.00000000E+00
  0.00000000E+00  0.00000000E+00  0.00000000E+00
  0.00000000E+00  0.00000000E+00  0.00000000E+00
  0.00000000E+00  0.00000000E+00  0.00000000E+00
  0.00000000E+00  0.00000000E+00  0.00000000E+00
  0.00000000E+00  0.00000000E+00  0.00000000E+00
