SnO2                                    
   1.00000000000000     
     9.4320271667224951    0.0000000000000000    0.0000000000000000
     0.0000000000000000    9.4320271667224951    0.0000000000000000
     0.0000000000000000    0.0000000000000000    6.3058068431916565
   O    Sn
    33    16
Selective dynamics
Direct
  0.1420797909081729  0.8579202090918275  0.7500000000000000   T   T   T
  0.4103873502579007  0.5896126497420993  0.7500000000000000   T   T   T
  0.9014193053641065  0.5915910631385238  0.7500000000000000   T   T   T
  0.6315605182049331  0.1712653498448318  0.0058502164666863   T   T   T
  0.8287346501551683  0.3684394817950667  0.0058502164666863   T   T   T
  0.8671868735913363  0.1328131264086636  0.2500000000000000   T   T   T
  0.5846916757097560  0.4153083242902441  0.2500000000000000   T   T   T
  0.6315605182049331  0.1712653498448318  0.4941497835333138   T   T   T
  0.3684394817950667  0.8287346501551683  0.4941497835333138   T   T   T
  0.8287346501551683  0.3684394817950667  0.4941497835333138   T   T   T
  0.5896126497420994  0.4103873502579007  0.7500000000000000   T   T   T
  0.6415005165033937  0.6415005165033937 -0.0038507743099254   T   T   T
  0.8208715153424545  0.8208715153424545  0.0029010231162398   T   T   T
  0.9019118379993165  0.5928459516196100  0.2500000000000000   T   T   T
  0.5928459516196100  0.9019118379993165  0.2500000000000000   T   T   T
  0.6415005165033937  0.6415005165033937  0.5038507743099255   T   T   T
  0.8208715153424545  0.8208715153424545  0.4970989768837600   T   T   T
  0.8579202090918275  0.1420797909081728  0.7500000000000000   T   T   T
  0.1712653498448318  0.6315605182049331  0.4941497835333138   T   T   T
  0.5915910631385238  0.9014193053641065  0.7500000000000000   T   T   T
  0.3584994834966068  0.3584994834966068  0.5038507743099255   T   T   T
  0.1328131264086636  0.8671868735913363  0.2500000000000000   T   T   T
  0.4153083242902440  0.5846916757097560  0.2500000000000000   T   T   T
  0.3684394817950667  0.8287346501551683  0.0058502164666863   T   T   T
  0.1791284846575455  0.1791284846575455  0.4970989768837600   T   T   T
  0.1791284846575455  0.1791284846575455  0.0029010231162398   T   T   T
  0.1712653498448318  0.6315605182049331  0.0058502164666863   T   T   T
  0.0980881620006838  0.4071540483803903  0.2500000000000000   T   T   T
  0.4084089368614762  0.0985806946358935  0.7500000000000000   T   T   T
  0.0985806946358935  0.4084089368614762  0.7500000000000000   T   T   T
  0.3584994834966068  0.3584994834966068 -0.0038507743099254   T   T   T
  0.4071540483803903  0.0980881620006838  0.2500000000000000   T   T   T
  0.0000000000000000  0.0000000000000000  0.2500000000000000   T   T   T
  0.5000000000000000  0.5000000000000000  0.5051075707088547   T   T   T
  0.7385837171319602  0.7385837171319602  0.7500000000000000   T   T   T
  0.2634195251694574  0.2634195251694574  0.2500000000000000   T   T   T
  0.0000000000000000  0.0000000000000000  0.5471810553335578   T   T   T
  0.7365804748305428  0.7365804748305428  0.2500000000000000   T   T   T
  0.0000000000000000  0.5000000000000000  0.4996195829041193   T   T   T
  0.2614162828680396  0.2614162828680396  0.7500000000000000   T   T   T
  0.2729074573214718  0.7270925426785284  0.7500000000000000   T   T   T
  0.7270925426785284  0.2729074573214718  0.7500000000000000   T   T   T
  0.5000000000000000  0.0000000000000000  0.4996195829041193   T   T   T
  0.0000000000000000  0.5000000000000000  0.0003804170958808   T   T   T
  0.2655842679635420  0.7344157320364579  0.2500000000000000   T   T   T
  0.7344157320364579  0.2655842679635420  0.2500000000000000   T   T   T
  0.5000000000000000  0.0000000000000000  0.0003804170958808   T   T   T
  0.5000000000000000  0.5000000000000000 -0.0051075707088547   T   T   T
  0.0000000000000000  0.0000000000000000 -0.0471810553335575   T   T   T
 
  0.00000000E+00  0.00000000E+00  0.00000000E+00
  0.00000000E+00  0.00000000E+00  0.00000000E+00
  0.00000000E+00  0.00000000E+00  0.00000000E+00
  0.00000000E+00  0.00000000E+00  0.00000000E+00
  0.00000000E+00  0.00000000E+00  0.00000000E+00
  0.00000000E+00  0.00000000E+00  0.00000000E+00
  0.00000000E+00  0.00000000E+00  0.00000000E+00
  0.00000000E+00  0.00000000E+00  0.00000000E+00
  0.00000000E+00  0.00000000E+00  0.00000000E+00
  0.00000000E+00  0.00000000E+00  0.00000000E+00
  0.00000000E+00  0.00000000E+00  0.00000000E+00
  0.00000000E+00  0.00000000E+00  0.00000000E+00
  0.00000000E+00  0.00000000E+00  0.00000000E+00
  0.00000000E+00  0.00000000E+00  0.00000000E+00
  0.00000000E+00  0.00000000E+00  0.00000000E+00
  0.00000000E+00  0.00000000E+00  0.00000000E+00
  0.00000000E+00  0.00000000E+00  0.00000000E+00
  0.00000000E+00  0.00000000E+00  0.00000000E+00
  0.00000000E+00  0.00000000E+00  0.00000000E+00
  0.00000000E+00  0.00000000E+00  0.00000000E+00
  0.00000000E+00  0.00000000E+00  0.00000000E+00
  0.00000000E+00  0.00000000E+00  0.00000000E+00
  0.00000000E+00  0.00000000E+00  0.00000000E+00
  0.00000000E+00  0.00000000E+00  0.00000000E+00
  0.00000000E+00  0.00000000E+00  0.00000000E+00
  0.00000000E+00  0.00000000E+00  0.00000000E+00
  0.00000000E+00  0.00000000E+00  0.00000000E+00
  0.00000000E+00  0.00000000E+00  0.00000000E+00
  0.00000000E+00  0.00000000E+00  0.00000000E+00
  0.00000000E+00  0.00000000E+00  0.00000000E+00
  0.00000000E+00  0.00000000E+00  0.00000000E+00
  0.00000000E+00  0.00000000E+00  0.00000000E+00
  0.00000000E+00  0.00000000E+00  0.00000000E+00
  0.00000000E+00  0.00000000E+00  0.00000000E+00
  0.00000000E+00  0.00000000E+00  0.00000000E+00
  0.00000000E+00  0.00000000E+00  0.00000000E+00
  0.00000000E+00  0.00000000E+00  0.00000000E+00
  0.00000000E+00  0.00000000E+00  0.00000000E+00
  0.00000000E+00  0.00000000E+00  0.00000000E+00
  0.00000000E+00  0.00000000E+00  0.00000000E+00
  0.00000000E+00  0.00000000E+00  0.00000000E+00
  0.00000000E+00  0.00000000E+00  0.00000000E+00
  0.00000000E+00  0.00000000E+00  0.00000000E+00
  0.00000000E+00  0.00000000E+00  0.00000000E+00
  0.00000000E+00  0.00000000E+00  0.00000000E+00
  0.00000000E+00  0.00000000E+00  0.00000000E+00
  0.00000000E+00  0.00000000E+00  0.00000000E+00
  0.00000000E+00  0.00000000E+00  0.00000000E+00
  0.00000000E+00  0.00000000E+00  0.00000000E+00
