SnO2                                    
   1.00000000000000     
     9.4320271667224951    0.0000000000000000    0.0000000000000000
     0.0000000000000000    9.4320271667224951    0.0000000000000000
     0.0000000000000000    0.0000000000000000    6.3058068431916565
   O    Sn
    31    16
Selective dynamics
Direct
  0.0991614897208846  0.9043687029439283  0.7505561762341511   T   T   T
  0.4033342770482166  0.5974151381006071  0.7494646849464593   T   T   T
  0.9024951241553277  0.5977594185563950  0.7495871706292105   T   T   T
  0.6533169234165961  0.1529342287550797  0.0000000000000000   T   T   T
  0.8470794960875287  0.3472014657635635  0.0000000000000000   T   T   T
  0.9043687029439283  0.0991614897208846  0.2494438237658490   T   T   T
  0.5974151381006071  0.4033342770482166  0.2505353150535407   T   T   T
  0.6531616631734443  0.1524782891163337  0.5000000000000000   T   T   T
  0.3469104997598101  0.8469810457607312  0.5000000000000000   T   T   T
  0.8469810457607312  0.3469104997598101  0.5000000000000000   T   T   T
  0.5974151381006071  0.4033342770482166  0.7494646849464593   T   T   T
  0.6536865940961556  0.6536865940961556  0.0000000000000000   T   T   T
  0.8482861751748628  0.8482861751748628  0.0000000000000000   T   T   T
  0.9024951241553277  0.5977594185563950  0.2504128293707893   T   T   T
  0.5977594185563950  0.9024951241553277  0.2504128293707893   T   T   T
  0.6527101012030740  0.6527101012030740  0.5000000000000000   T   T   T
  0.8478581323421871  0.8478581323421871  0.5000000000000000   T   T   T
  0.9043687029439283  0.0991614897208846  0.7505561762341511   T   T   T
  0.1524782891163337  0.6531616631734443  0.5000000000000000   T   T   T
  0.5977594185563950  0.9024951241553277  0.7495871706292105   T   T   T
  0.3442396869439951  0.3442396869439951  0.5000000000000000   T   T   T
  0.0991614897208846  0.9043687029439283  0.2494438237658490   T   T   T
  0.4033342770482166  0.5974151381006071  0.2505353150535407   T   T   T
  0.3472014657635635  0.8470794960875287  0.0000000000000000   T   T   T
  0.1511523844396818  0.1511523844396818  0.5000000000000000   T   T   T
  0.1529342287550797  0.6533169234165961  0.0000000000000000   T   T   T
  0.0948647370233728  0.4028177401111119  0.2482007104297462   T   T   T
  0.4028177401111119  0.0948647370233728  0.7517992895702538   T   T   T
  0.0948647370233728  0.4028177401111119  0.7517992895702538   T   T   T
  0.3485021378216227  0.3485021378216227  0.0000000000000000   T   T   T
  0.4028177401111119  0.0948647370233728  0.2482007104297462   T   T   T
  0.4980589069135601  0.4980589069135601  0.5000000000000000   T   T   T
  0.7502448409560453  0.7502448409560453  0.7496874552667502   T   T   T
  0.2468924163211393  0.2468924163211393  0.2449813488542181   T   T   T
 -0.0000875449938262 -0.0000875449938262  0.5000000000000000   T   T   T
  0.7502448409560453  0.7502448409560453  0.2503125447332498   T   T   T
 -0.0005256988484134  0.4999119526557990  0.5000000000000000   T   T   T
  0.2468924163211393  0.2468924163211393  0.7550186511457818   T   T   T
  0.2507540740879073  0.7494978467273251  0.7500654392260120   T   T   T
  0.7494978467273251  0.2507540740879073  0.7500654392260120   T   T   T
  0.4999119526557990 -0.0005256988484134  0.5000000000000000   T   T   T
 -0.0012794990423165  0.5017894278516336  0.0000000000000000   T   T   T
  0.2507540740879073  0.7494978467273251  0.2499345607739880   T   T   T
  0.7494978467273251  0.2507540740879073  0.2499345607739880   T   T   T
  0.5017894278516336 -0.0012794990423165  0.0000000000000000   T   T   T
  0.5012603733624248  0.5012603733624248  0.0000000000000000   T   T   T
  0.0022365592153811  0.0022365592153811  0.0000000000000000   T   T   T
 
  0.00000000E+00  0.00000000E+00  0.00000000E+00
  0.00000000E+00  0.00000000E+00  0.00000000E+00
  0.00000000E+00  0.00000000E+00  0.00000000E+00
  0.00000000E+00  0.00000000E+00  0.00000000E+00
  0.00000000E+00  0.00000000E+00  0.00000000E+00
  0.00000000E+00  0.00000000E+00  0.00000000E+00
  0.00000000E+00  0.00000000E+00  0.00000000E+00
  0.00000000E+00  0.00000000E+00  0.00000000E+00
  0.00000000E+00  0.00000000E+00  0.00000000E+00
  0.00000000E+00  0.00000000E+00  0.00000000E+00
  0.00000000E+00  0.00000000E+00  0.00000000E+00
  0.00000000E+00  0.00000000E+00  0.00000000E+00
  0.00000000E+00  0.00000000E+00  0.00000000E+00
  0.00000000E+00  0.00000000E+00  0.00000000E+00
  0.00000000E+00  0.00000000E+00  0.00000000E+00
  0.00000000E+00  0.00000000E+00  0.00000000E+00
  0.00000000E+00  0.00000000E+00  0.00000000E+00
  0.00000000E+00  0.00000000E+00  0.00000000E+00
  0.00000000E+00  0.00000000E+00  0.00000000E+00
  0.00000000E+00  0.00000000E+00  0.00000000E+00
  0.00000000E+00  0.00000000E+00  0.00000000E+00
  0.00000000E+00  0.00000000E+00  0.00000000E+00
  0.00000000E+00  0.00000000E+00  0.00000000E+00
  0.00000000E+00  0.00000000E+00  0.00000000E+00
  0.00000000E+00  0.00000000E+00  0.00000000E+00
  0.00000000E+00  0.00000000E+00  0.00000000E+00
  0.00000000E+00  0.00000000E+00  0.00000000E+00
  0.00000000E+00  0.00000000E+00  0.00000000E+00
  0.00000000E+00  0.00000000E+00  0.00000000E+00
  0.00000000E+00  0.00000000E+00  0.00000000E+00
  0.00000000E+00  0.00000000E+00  0.00000000E+00
  0.00000000E+00  0.00000000E+00  0.00000000E+00
  0.00000000E+00  0.00000000E+00  0.00000000E+00
  0.00000000E+00  0.00000000E+00  0.00000000E+00
  0.00000000E+00  0.00000000E+00  0.00000000E+00
  0.00000000E+00  0.00000000E+00  0.00000000E+00
  0.00000000E+00  0.00000000E+00  0.00000000E+00
  0.00000000E+00  0.00000000E+00  0.00000000E+00
  0.00000000E+00  0.00000000E+00  0.00000000E+00
  0.00000000E+00  0.00000000E+00  0.00000000E+00
  0.00000000E+00  0.00000000E+00  0.00000000E+00
  0.00000000E+00  0.00000000E+00  0.00000000E+00
  0.00000000E+00  0.00000000E+00  0.00000000E+00
  0.00000000E+00  0.00000000E+00  0.00000000E+00
  0.00000000E+00  0.00000000E+00  0.00000000E+00
  0.00000000E+00  0.00000000E+00  0.00000000E+00
  0.00000000E+00  0.00000000E+00  0.00000000E+00
