SnO2                                    
   1.00000000000000     
     9.4320271667224951    0.0000000000000000    0.0000000000000000
     0.0000000000000000    9.4320271667224951    0.0000000000000000
     0.0000000000000000    0.0000000000000000    6.3058068431916565
   O    Sn
    32    15
Selective dynamics
Direct
  0.1022220722967040  0.8977779277032961  0.7279866073148541   T   T   T
  0.4027403963953251  0.5972596036046749  0.7495112294315471   T   T   T
  0.9031537106274625  0.5967267026653921  0.7501559349077409   T   T   T
  0.6509668064822919  0.1543558832204730  0.0000000000000000   T   T   T
  0.8456441167795270  0.3490331935177081  0.0000000000000000   T   T   T
  0.8977779277032961  0.1022220722967040  0.2720133926851458   T   T   T
  0.5972596036046749  0.4027403963953251  0.2504887705684529   T   T   T
  0.6466448808598526  0.1567036841354816  0.5000000000000000   T   T   T
  0.3533551191401474  0.8432963158645184  0.5000000000000000   T   T   T
  0.8432963158645184  0.3533551191401474  0.5000000000000000   T   T   T
  0.5972596036046749  0.4027403963953251  0.7495112294315471   T   T   T
  0.6504863317908517  0.6504863317908517  0.0000000000000000   T   T   T
  0.8443512514531175  0.8443512514531175  0.0000000000000000   T   T   T
  0.9031537106274625  0.5967267026653921  0.2498440650922592   T   T   T
  0.5967267026653921  0.9031537106274625  0.2498440650922592   T   T   T
  0.6532731149908791  0.6532731149908791  0.5000000000000000   T   T   T
  0.8460775428496687  0.8460775428496687  0.5000000000000000   T   T   T
  0.8977779277032961  0.1022220722967040  0.7279866073148541   T   T   T
  0.1567036841354816  0.6466448808598526  0.5000000000000000   T   T   T
  0.5967267026653921  0.9031537106274625  0.7501559349077409   T   T   T
  0.3467268850091209  0.3467268850091209  0.5000000000000000   T   T   T
  0.1022220722967040  0.8977779277032961  0.2720133926851458   T   T   T
  0.4027403963953251  0.5972596036046749  0.2504887705684529   T   T   T
  0.3490331935177081  0.8456441167795270  0.0000000000000000   T   T   T
  0.1539224571503313  0.1539224571503313  0.5000000000000000   T   T   T
  0.1556487485468824  0.1556487485468824  0.0000000000000000   T   T   T
  0.1543558832204730  0.6509668064822919  0.0000000000000000   T   T   T
  0.0968462893725375  0.4032732973346079  0.2498440650922592   T   T   T
  0.4032732973346079  0.0968462893725375  0.7501559349077409   T   T   T
  0.0968462893725375  0.4032732973346079  0.7501559349077409   T   T   T
  0.3495136682091483  0.3495136682091483  0.0000000000000000   T   T   T
  0.4032732973346079  0.0968462893725375  0.2498440650922592   T   T   T
  0.5000000000000000  0.5000000000000000  0.5000000000000000   T   T   T
  0.7511474915786036  0.7511474915786036  0.7519909157644978   T   T   T
  0.2488525084213964  0.2488525084213964  0.2480090842355022   T   T   T
  0.0000000000000000  0.0000000000000000  0.5000000000000000   T   T   T
  0.7511474915786036  0.7511474915786036  0.2480090842355022   T   T   T
  0.0000000000000000  0.5000000000000000  0.5000000000000000   T   T   T
  0.2488525084213964  0.2488525084213964  0.7519909157644978   T   T   T
  0.2499517987321558  0.7500482012678442  0.7504177998477853   T   T   T
  0.7500482012678442  0.2499517987321558  0.7504177998477853   T   T   T
  0.5000000000000000  0.0000000000000000  0.5000000000000000   T   T   T
  0.0000000000000000  0.5000000000000000  0.0000000000000000   T   T   T
  0.2499517987321558  0.7500482012678442  0.2495822001522147   T   T   T
  0.7500482012678442  0.2499517987321558  0.2495822001522147   T   T   T
  0.5000000000000000  0.0000000000000000  0.0000000000000000   T   T   T
  0.5000000000000000  0.5000000000000000  0.0000000000000000   T   T   T
 
  0.00000000E+00  0.00000000E+00  0.00000000E+00
  0.00000000E+00  0.00000000E+00  0.00000000E+00
  0.00000000E+00  0.00000000E+00  0.00000000E+00
  0.00000000E+00  0.00000000E+00  0.00000000E+00
  0.00000000E+00  0.00000000E+00  0.00000000E+00
  0.00000000E+00  0.00000000E+00  0.00000000E+00
  0.00000000E+00  0.00000000E+00  0.00000000E+00
  0.00000000E+00  0.00000000E+00  0.00000000E+00
  0.00000000E+00  0.00000000E+00  0.00000000E+00
  0.00000000E+00  0.00000000E+00  0.00000000E+00
  0.00000000E+00  0.00000000E+00  0.00000000E+00
  0.00000000E+00  0.00000000E+00  0.00000000E+00
  0.00000000E+00  0.00000000E+00  0.00000000E+00
  0.00000000E+00  0.00000000E+00  0.00000000E+00
  0.00000000E+00  0.00000000E+00  0.00000000E+00
  0.00000000E+00  0.00000000E+00  0.00000000E+00
  0.00000000E+00  0.00000000E+00  0.00000000E+00
  0.00000000E+00  0.00000000E+00  0.00000000E+00
  0.00000000E+00  0.00000000E+00  0.00000000E+00
  0.00000000E+00  0.00000000E+00  0.00000000E+00
  0.00000000E+00  0.00000000E+00  0.00000000E+00
  0.00000000E+00  0.00000000E+00  0.00000000E+00
  0.00000000E+00  0.00000000E+00  0.00000000E+00
  0.00000000E+00  0.00000000E+00  0.00000000E+00
  0.00000000E+00  0.00000000E+00  0.00000000E+00
  0.00000000E+00  0.00000000E+00  0.00000000E+00
  0.00000000E+00  0.00000000E+00  0.00000000E+00
  0.00000000E+00  0.00000000E+00  0.00000000E+00
  0.00000000E+00  0.00000000E+00  0.00000000E+00
  0.00000000E+00  0.00000000E+00  0.00000000E+00
  0.00000000E+00  0.00000000E+00  0.00000000E+00
  0.00000000E+00  0.00000000E+00  0.00000000E+00
  0.00000000E+00  0.00000000E+00  0.00000000E+00
  0.00000000E+00  0.00000000E+00  0.00000000E+00
  0.00000000E+00  0.00000000E+00  0.00000000E+00
  0.00000000E+00  0.00000000E+00  0.00000000E+00
  0.00000000E+00  0.00000000E+00  0.00000000E+00
  0.00000000E+00  0.00000000E+00  0.00000000E+00
  0.00000000E+00  0.00000000E+00  0.00000000E+00
  0.00000000E+00  0.00000000E+00  0.00000000E+00
  0.00000000E+00  0.00000000E+00  0.00000000E+00
  0.00000000E+00  0.00000000E+00  0.00000000E+00
  0.00000000E+00  0.00000000E+00  0.00000000E+00
  0.00000000E+00  0.00000000E+00  0.00000000E+00
  0.00000000E+00  0.00000000E+00  0.00000000E+00
  0.00000000E+00  0.00000000E+00  0.00000000E+00
  0.00000000E+00  0.00000000E+00  0.00000000E+00
