SnO2                                    
   1.00000000000000     
     9.4320271667224951    0.0000000000000000    0.0000000000000000
     0.0000000000000000    9.4320271667224951    0.0000000000000000
     0.0000000000000000    0.0000000000000000    6.3058068431916565
   O    Sn   H 
    32    15     1
Selective dynamics
Direct
  0.0980082159141159  0.9019917840858843  0.7434848096303290   T   T   T
  0.4018290000769263  0.5981709999230734  0.7494744963649121   T   T   T
  0.9037675477705324  0.5967494593595661  0.7498894313957354   T   T   T
  0.6494753681251435  0.1550856892058816  0.0000000000000000   T   T   T
  0.8449143107941182  0.3505246318748562  0.0000000000000000   T   T   T
  0.9019917840858843  0.0980082159141159  0.2565151903696715   T   T   T
  0.5981709999230734  0.4018290000769263  0.2505255036350875   T   T   T
  0.6478195981397725  0.1555901961344670  0.5000000000000000   T   T   T
  0.3521804018602276  0.8444098038655332  0.5000000000000000   T   T   T
  0.8444098038655332  0.3521804018602276  0.5000000000000000   T   T   T
  0.5981709999230734  0.4018290000769263  0.7494744963649121   T   T   T
  0.6514192463761839  0.6514192463761839  0.0000000000000000   T   T   T
  0.8469852395272387  0.8469852395272387  0.0000000000000000   T   T   T
  0.9037675477705324  0.5967494593595661  0.2501105686042643   T   T   T
  0.5967494593595661  0.9037675477705324  0.2501105686042643   T   T   T
  0.6541792097655956  0.6541792097655956  0.5000000000000000   T   T   T
  0.8458660721151988  0.8458660721151988  0.5000000000000000   T   T   T
  0.9019917840858843  0.0980082159141159  0.7434848096303290   T   T   T
  0.1555901961344670  0.6478195981397725  0.5000000000000000   T   T   T
  0.5967494593595661  0.9037675477705324  0.7498894313957354   T   T   T
  0.3458207902344044  0.3458207902344044  0.5000000000000000   T   T   T
  0.0980082159141159  0.9019917840858843  0.2565151903696715   T   T   T
  0.4018290000769263  0.5981709999230734  0.2505255036350875   T   T   T
  0.3505246318748562  0.8449143107941182  0.0000000000000000   T   T   T
  0.1541339278848014  0.1541339278848014  0.5000000000000000   T   T   T
  0.1530147604727615  0.1530147604727615  0.0000000000000000   T   T   T
  0.1550856892058816  0.6494753681251435  0.0000000000000000   T   T   T
  0.0962324522294678  0.4032505406404338  0.2501105686042643   T   T   T
  0.4032505406404338  0.0962324522294678  0.7498894313957354   T   T   T
  0.0962324522294678  0.4032505406404338  0.7498894313957354   T   T   T
  0.3485807536238162  0.3485807536238162  0.0000000000000000   T   T   T
  0.4032505406404338  0.0962324522294678  0.2501105686042643   T   T   T
  0.5000000000000000  0.5000000000000000  0.5000000000000000   T   T   T
  0.7536968214171055  0.7536968214171055  0.7537116531608521   T   T   T
  0.2463031785828948  0.2463031785828948  0.2462883468391481   T   T   T
  0.0000000000000000  0.0000000000000000  0.5000000000000000   T   T   T
  0.7536968214171055  0.7536968214171055  0.2462883468391481   T   T   T
  0.0000000000000000  0.5000000000000000  0.5000000000000000   T   T   T
  0.2463031785828948  0.2463031785828948  0.7537116531608521   T   T   T
  0.2455300219721144  0.7544699780278856  0.7501938201887233   T   T   T
  0.7544699780278856  0.2455300219721144  0.7501938201887233   T   T   T
  0.5000000000000000  0.0000000000000000  0.5000000000000000   T   T   T
  0.0000000000000000  0.5000000000000000  0.0000000000000000   T   T   T
  0.2455300219721144  0.7544699780278856  0.2498061798112768   T   T   T
  0.7544699780278856  0.2455300219721144  0.2498061798112768   T   T   T
  0.5000000000000000  0.0000000000000000  0.0000000000000000   T   T   T
  0.5000000000000000  0.5000000000000000  0.0000000000000000   T   T   T
  0.0000000000000000  0.0000000000000000  0.0000000000000000   T   T   T
 
  0.00000000E+00  0.00000000E+00  0.00000000E+00
  0.00000000E+00  0.00000000E+00  0.00000000E+00
  0.00000000E+00  0.00000000E+00  0.00000000E+00
  0.00000000E+00  0.00000000E+00  0.00000000E+00
  0.00000000E+00  0.00000000E+00  0.00000000E+00
  0.00000000E+00  0.00000000E+00  0.00000000E+00
  0.00000000E+00  0.00000000E+00  0.00000000E+00
  0.00000000E+00  0.00000000E+00  0.00000000E+00
  0.00000000E+00  0.00000000E+00  0.00000000E+00
  0.00000000E+00  0.00000000E+00  0.00000000E+00
  0.00000000E+00  0.00000000E+00  0.00000000E+00
  0.00000000E+00  0.00000000E+00  0.00000000E+00
  0.00000000E+00  0.00000000E+00  0.00000000E+00
  0.00000000E+00  0.00000000E+00  0.00000000E+00
  0.00000000E+00  0.00000000E+00  0.00000000E+00
  0.00000000E+00  0.00000000E+00  0.00000000E+00
  0.00000000E+00  0.00000000E+00  0.00000000E+00
  0.00000000E+00  0.00000000E+00  0.00000000E+00
  0.00000000E+00  0.00000000E+00  0.00000000E+00
  0.00000000E+00  0.00000000E+00  0.00000000E+00
  0.00000000E+00  0.00000000E+00  0.00000000E+00
  0.00000000E+00  0.00000000E+00  0.00000000E+00
  0.00000000E+00  0.00000000E+00  0.00000000E+00
  0.00000000E+00  0.00000000E+00  0.00000000E+00
  0.00000000E+00  0.00000000E+00  0.00000000E+00
  0.00000000E+00  0.00000000E+00  0.00000000E+00
  0.00000000E+00  0.00000000E+00  0.00000000E+00
  0.00000000E+00  0.00000000E+00  0.00000000E+00
  0.00000000E+00  0.00000000E+00  0.00000000E+00
  0.00000000E+00  0.00000000E+00  0.00000000E+00
  0.00000000E+00  0.00000000E+00  0.00000000E+00
  0.00000000E+00  0.00000000E+00  0.00000000E+00
  0.00000000E+00  0.00000000E+00  0.00000000E+00
  0.00000000E+00  0.00000000E+00  0.00000000E+00
  0.00000000E+00  0.00000000E+00  0.00000000E+00
  0.00000000E+00  0.00000000E+00  0.00000000E+00
  0.00000000E+00  0.00000000E+00  0.00000000E+00
  0.00000000E+00  0.00000000E+00  0.00000000E+00
  0.00000000E+00  0.00000000E+00  0.00000000E+00
  0.00000000E+00  0.00000000E+00  0.00000000E+00
  0.00000000E+00  0.00000000E+00  0.00000000E+00
  0.00000000E+00  0.00000000E+00  0.00000000E+00
  0.00000000E+00  0.00000000E+00  0.00000000E+00
  0.00000000E+00  0.00000000E+00  0.00000000E+00
  0.00000000E+00  0.00000000E+00  0.00000000E+00
  0.00000000E+00  0.00000000E+00  0.00000000E+00
  0.00000000E+00  0.00000000E+00  0.00000000E+00
  0.00000000E+00  0.00000000E+00  0.00000000E+00
