SnO2                                    
   1.00000000000000     
     9.4320271667224951    0.0000000000000000    0.0000000000000000
     0.0000000000000000    9.4320271667224951    0.0000000000000000
     0.0000000000000000    0.0000000000000000    6.3058068431916565
   O    Sn
    33    16
Selective dynamics
Direct
  0.0828524858289364  0.8842390793079651  0.7348649790431098   T   T   T
  0.4004649288678998  0.5858826170170243  0.7426286345195718   T   T   T
  0.8996589776865860  0.5997396745836291  0.7501444725148505   T   T   T
  0.6522428664695802  0.1508569268289092  0.0000000000000000   T   T   T
  0.8455768371597798  0.3508062090967645  0.0000000000000000   T   T   T
  0.9081788683079740  0.0943326670337002  0.2460897734112482   T   T   T
  0.6003410223134069  0.4002603254163647  0.2498555274851420   T   T   T
  0.6653920994044248  0.1479235941360845  0.5000000000000000   T   T   T
  0.3487026063468011  0.8510372622762441  0.5000000000000000   T   T   T
  0.8495807706995006  0.3464762198597062  0.5000000000000000   T   T   T
  0.6003410223134140  0.4002603254163647  0.7501444725148505   T   T   T
  0.6544231628402131  0.6491937909032417  0.0000000000000000   T   T   T
  0.8477571335304340  0.8491430731710981  0.0000000000000000   T   T   T
  0.8996589776865860  0.5997396745836362  0.2498555274851420   T   T   T
  0.5918211316920260  0.9056673329662930  0.2460897734112482   T   T   T
  0.6504192293004923  0.6535237801403010  0.5000000000000000   T   T   T
  0.8346079005955752  0.8520764058639159  0.5000000000000000   T   T   T
  0.9081788683079740  0.0943326670337073  0.7539102265887518   T   T   T
  0.1583702581201197  0.6527516603770147  0.5000000000000000   T   T   T
  0.5918211316920260  0.9056673329663001  0.7539102265887589   T   T   T
  0.3416297418798805  0.3472483396229865  0.5000000000000000   T   T   T
  0.0828524858289364  0.8842390793079651  0.2651350209568834   T   T   T
  0.4004649288678998  0.5858826170170243  0.2573713654804279   T   T   T
  0.3880889237642552  0.7909073158114636  0.0000000000000000   T   T   T
  0.1512973936531990  0.1489627377237486  0.5000000000000000   T   T   T
  0.1119110762357442  0.2090926841885288  0.0000000000000000   T   T   T
  0.1509481744299210  0.6543075622433303  0.0000000000000000   T   T   T
  0.0995350711321000  0.4141173829829753  0.2573713654804350   T   T   T
  0.4171475141710712  0.1157609206920488  0.7348649790431098   T   T   T
  0.0995350711321000  0.4141173829829753  0.7426286345195647   T   T   T
  0.3490518255700725  0.3456924377566709  0.0000000000000000   T   T   T
  0.4171475141710712  0.1157609206920417  0.2651350209568834   T   T   T
  0.2500000000000000  0.0000000000000000  0.0000000000000000   T   T   T
  0.5016604361701335  0.4931551063572110  0.5000000000000000   T   T   T
  0.7467867025636776  0.7546662698955425  0.7534082976866189   T   T   T
  0.2462973143962434  0.2500589333836648  0.2480581968720921   T   T   T
  0.9942873193783901 -0.0033383052945110  0.5000000000000000   T   T   T
  0.7467867025636776  0.7546662698955425  0.2465917023133808   T   T   T
 -0.0016604361701328  0.5068448936427821  0.5000000000000000   T   T   T
  0.2462973143962434  0.2500589333836719  0.7519418031278999   T   T   T
  0.2537026856037563  0.7499410666163285  0.7519418031278999   T   T   T
  0.7532132974363295  0.2453337301044579  0.7534082976866189   T   T   T
  0.5057126806216028  1.0033383052945140  0.5000000000000000   T   T   T
  0.0006725495655854  0.4997595484443129  0.0000000000000000   T   T   T
  0.2537026856037563  0.7499410666163285  0.2480581968720921   T   T   T
  0.7532132974363224  0.2453337301044579  0.2465917023133808   T   T   T
  0.4699981274246983 -0.0008351320017594  0.0000000000000000   T   T   T
  0.4993274504344148  0.5002404515556869  0.0000000000000000   T   T   T
  0.0300018725753022  1.0008351320017543  0.0000000000000000   T   T   T
 
  0.00000000E+00  0.00000000E+00  0.00000000E+00
  0.00000000E+00  0.00000000E+00  0.00000000E+00
  0.00000000E+00  0.00000000E+00  0.00000000E+00
  0.00000000E+00  0.00000000E+00  0.00000000E+00
  0.00000000E+00  0.00000000E+00  0.00000000E+00
  0.00000000E+00  0.00000000E+00  0.00000000E+00
  0.00000000E+00  0.00000000E+00  0.00000000E+00
  0.00000000E+00  0.00000000E+00  0.00000000E+00
  0.00000000E+00  0.00000000E+00  0.00000000E+00
  0.00000000E+00  0.00000000E+00  0.00000000E+00
  0.00000000E+00  0.00000000E+00  0.00000000E+00
  0.00000000E+00  0.00000000E+00  0.00000000E+00
  0.00000000E+00  0.00000000E+00  0.00000000E+00
  0.00000000E+00  0.00000000E+00  0.00000000E+00
  0.00000000E+00  0.00000000E+00  0.00000000E+00
  0.00000000E+00  0.00000000E+00  0.00000000E+00
  0.00000000E+00  0.00000000E+00  0.00000000E+00
  0.00000000E+00  0.00000000E+00  0.00000000E+00
  0.00000000E+00  0.00000000E+00  0.00000000E+00
  0.00000000E+00  0.00000000E+00  0.00000000E+00
  0.00000000E+00  0.00000000E+00  0.00000000E+00
  0.00000000E+00  0.00000000E+00  0.00000000E+00
  0.00000000E+00  0.00000000E+00  0.00000000E+00
  0.00000000E+00  0.00000000E+00  0.00000000E+00
  0.00000000E+00  0.00000000E+00  0.00000000E+00
  0.00000000E+00  0.00000000E+00  0.00000000E+00
  0.00000000E+00  0.00000000E+00  0.00000000E+00
  0.00000000E+00  0.00000000E+00  0.00000000E+00
  0.00000000E+00  0.00000000E+00  0.00000000E+00
  0.00000000E+00  0.00000000E+00  0.00000000E+00
  0.00000000E+00  0.00000000E+00  0.00000000E+00
  0.00000000E+00  0.00000000E+00  0.00000000E+00
  0.00000000E+00  0.00000000E+00  0.00000000E+00
  0.00000000E+00  0.00000000E+00  0.00000000E+00
  0.00000000E+00  0.00000000E+00  0.00000000E+00
  0.00000000E+00  0.00000000E+00  0.00000000E+00
  0.00000000E+00  0.00000000E+00  0.00000000E+00
  0.00000000E+00  0.00000000E+00  0.00000000E+00
  0.00000000E+00  0.00000000E+00  0.00000000E+00
  0.00000000E+00  0.00000000E+00  0.00000000E+00
  0.00000000E+00  0.00000000E+00  0.00000000E+00
  0.00000000E+00  0.00000000E+00  0.00000000E+00
  0.00000000E+00  0.00000000E+00  0.00000000E+00
  0.00000000E+00  0.00000000E+00  0.00000000E+00
  0.00000000E+00  0.00000000E+00  0.00000000E+00
  0.00000000E+00  0.00000000E+00  0.00000000E+00
  0.00000000E+00  0.00000000E+00  0.00000000E+00
  0.00000000E+00  0.00000000E+00  0.00000000E+00
  0.00000000E+00  0.00000000E+00  0.00000000E+00
