SnO2                                    
   1.00000000000000     
     9.4320271667224951    0.0000000000000000    0.0000000000000000
     0.0000000000000000    9.4320271667224951    0.0000000000000000
     0.0000000000000000    0.0000000000000000    6.3058068431916565
   O    Sn   H 
    32    16     1
Selective dynamics
Direct
  0.1032591802871080  0.8967914362668983  0.7407901727685081   T   T   T
  0.4117074524533537  0.6001194443450297  0.7535837370265238   T   T   T
  0.8968153912968674  0.5988690795656937  0.7455933805333428   T   T   T
  0.6374496208376313  0.1632819213924257  0.0000000000000000   T   T   T
  0.8459283156027783  0.3442553231107782  0.0000000000000000   T   T   T
  0.8969989383286288  0.0854820021268607  0.2429798646292262   T   T   T
  0.6031846087031326  0.4011309204343122  0.2544066194666606   T   T   T
  0.6428686537820553  0.1568967401155391  0.5000000000000000   T   T   T
  0.3503516632165530  0.8418072894958958  0.5000000000000000   T   T   T
  0.8527264276307170  0.3322883338585323  0.5000000000000000   T   T   T
  0.6031846087031326  0.4011309204343122  0.7455933805333428   T   T   T
  0.6540716843972217  0.6557446768892045  0.0000000000000000   T   T   T
  0.8625503791623687  0.8367180786075793  0.0000000000000000   T   T   T
  0.8968153912968674  0.5988690795656937  0.2544066194666606   T   T   T
  0.6030010616713712  0.9145179978731417  0.2429798646292262   T   T   T
  0.6472735723692830  0.6677116661414916  0.5000000000000000   T   T   T
  0.8571313462179447  0.8431032598844770  0.5000000000000000   T   T   T
  0.8969989383286288  0.0854820021268607  0.7570201353707756   T   T   T
  0.1796689898576703  0.6112885672587046  0.5000000000000000   T   T   T
  0.6030010616713712  0.9145179978731417  0.7570201353707756   T   T   T
  0.3203310101423257  0.3887114327413205  0.5000000000000000   T   T   T
  0.1032591802871080  0.8967914362668983  0.2592098272314895   T   T   T
  0.4117074524533537  0.6001194443450297  0.2464162629734599   T   T   T
  0.3477742863809591  0.8493846484889289  0.0000000000000000   T   T   T
  0.1496483367834514  0.1581927105041109  0.5000000000000000   T   T   T
  0.1522257136190406  0.1506153515110586  0.0000000000000000   T   T   T
  0.1516185761870637  0.6486425760662204  0.0000000000000000   T   T   T
  0.0882925475466399  0.3998805556549725  0.2464162629734599   T   T   T
  0.3967408197128798  0.1032085637331057  0.7407901727685081   T   T   T
  0.0882925475466399  0.3998805556549725  0.7535837370265238   T   T   T
  0.3483814238129291  0.3513574239337718  0.0000000000000000   T   T   T
  0.3967408197128798  0.1032085637331057  0.2592098272314895   T   T   T
  0.5121159446919412  0.5043640064912187  0.5000000000000000   T   T   T
  0.7498432122151325  0.7579375145863491  0.7512984670845927   T   T   T
  0.2458701779918912  0.2550623755324084  0.2481310876345692   T   T   T
  0.0007001063730016  0.0028932551258817  0.5000000000000000   T   T   T
  0.7498432122151325  0.7579375145863491  0.2487015329154259   T   T   T
  0.9878840553080446  0.4956359935087944  0.5000000000000000   T   T   T
  0.2458701779918912  0.2550623755324084  0.7518689123654260   T   T   T
  0.2541298220081082  0.7449376244675752  0.7518689123654260   T   T   T
  0.7501567877848675  0.2420624854136436  0.7512984670845927   T   T   T
  0.4992998936269887  0.9971067448741144  0.5000000000000000   T   T   T
  0.9914434815523334  0.5028980414658485  0.0000000000000000   T   T   T
  0.2541298220081082  0.7449376244675752  0.2481310876345692   T   T   T
  0.7501567877848675  0.2420624854136436  0.2487015329154288   T   T   T
  0.4905263510740038  0.0084167206546434  0.0000000000000000   T   T   T
  0.5085565184476666  0.4971019585341604  0.0000000000000000   T   T   T
  0.0094736489260055  0.9915832793453558  0.0000000000000000   T   T   T
  0.28500000000000000  0.4400000000000000  0.5000000000000000   T   T   T
 
  0.00000000E+00  0.00000000E+00  0.00000000E+00
  0.00000000E+00  0.00000000E+00  0.00000000E+00
  0.00000000E+00  0.00000000E+00  0.00000000E+00
  0.00000000E+00  0.00000000E+00  0.00000000E+00
  0.00000000E+00  0.00000000E+00  0.00000000E+00
  0.00000000E+00  0.00000000E+00  0.00000000E+00
  0.00000000E+00  0.00000000E+00  0.00000000E+00
  0.00000000E+00  0.00000000E+00  0.00000000E+00
  0.00000000E+00  0.00000000E+00  0.00000000E+00
  0.00000000E+00  0.00000000E+00  0.00000000E+00
  0.00000000E+00  0.00000000E+00  0.00000000E+00
  0.00000000E+00  0.00000000E+00  0.00000000E+00
  0.00000000E+00  0.00000000E+00  0.00000000E+00
  0.00000000E+00  0.00000000E+00  0.00000000E+00
  0.00000000E+00  0.00000000E+00  0.00000000E+00
  0.00000000E+00  0.00000000E+00  0.00000000E+00
  0.00000000E+00  0.00000000E+00  0.00000000E+00
  0.00000000E+00  0.00000000E+00  0.00000000E+00
  0.00000000E+00  0.00000000E+00  0.00000000E+00
  0.00000000E+00  0.00000000E+00  0.00000000E+00
  0.00000000E+00  0.00000000E+00  0.00000000E+00
  0.00000000E+00  0.00000000E+00  0.00000000E+00
  0.00000000E+00  0.00000000E+00  0.00000000E+00
  0.00000000E+00  0.00000000E+00  0.00000000E+00
  0.00000000E+00  0.00000000E+00  0.00000000E+00
  0.00000000E+00  0.00000000E+00  0.00000000E+00
  0.00000000E+00  0.00000000E+00  0.00000000E+00
  0.00000000E+00  0.00000000E+00  0.00000000E+00
  0.00000000E+00  0.00000000E+00  0.00000000E+00
  0.00000000E+00  0.00000000E+00  0.00000000E+00
  0.00000000E+00  0.00000000E+00  0.00000000E+00
  0.00000000E+00  0.00000000E+00  0.00000000E+00
  0.00000000E+00  0.00000000E+00  0.00000000E+00
  0.00000000E+00  0.00000000E+00  0.00000000E+00
  0.00000000E+00  0.00000000E+00  0.00000000E+00
  0.00000000E+00  0.00000000E+00  0.00000000E+00
  0.00000000E+00  0.00000000E+00  0.00000000E+00
  0.00000000E+00  0.00000000E+00  0.00000000E+00
  0.00000000E+00  0.00000000E+00  0.00000000E+00
  0.00000000E+00  0.00000000E+00  0.00000000E+00
  0.00000000E+00  0.00000000E+00  0.00000000E+00
  0.00000000E+00  0.00000000E+00  0.00000000E+00
  0.00000000E+00  0.00000000E+00  0.00000000E+00
  0.00000000E+00  0.00000000E+00  0.00000000E+00
  0.00000000E+00  0.00000000E+00  0.00000000E+00
  0.00000000E+00  0.00000000E+00  0.00000000E+00
  0.00000000E+00  0.00000000E+00  0.00000000E+00
  0.00000000E+00  0.00000000E+00  0.00000000E+00
  0.00000000E+00  0.00000000E+00  0.00000000E+00
