SnO2                                    
   1.00000000000000     
     9.4320271667224951    0.0000000000000000    0.0000000000000000
     0.0000000000000000    9.4320271667224951    0.0000000000000000
     0.0000000000000000    0.0000000000000000    6.3058068431916565
   O    Sn   H 
    31    16     1
Selective dynamics
Direct
  0.0995353155399459  0.9056661003831575  0.7509798827759361   T   T   T
  0.4024160790477202  0.5963132001957576  0.7502736748889344   T   T   T
  0.9031928304764334  0.5968775159832547  0.7493664146013232   T   T   T
  0.6530409120908404  0.1522065832507823  0.0000000000000000   T   T   T
  0.8474999298667157  0.3471906486519890  0.0000000000000000   T   T   T
  0.9056661003831575  0.0995353155399459  0.2490201172240639   T   T   T
  0.5963132001957576  0.4024160790477202  0.2497263251110656   T   T   T
  0.6521924581479740  0.1524406104254593  0.5000000000000000   T   T   T
  0.3472903511387739  0.8468644739974401  0.5000000000000000   T   T   T
  0.8468644739974401  0.3472903511387739  0.5000000000000000   T   T   T
  0.5963132001957576  0.4024160790477202  0.7502736748889344   T   T   T
  0.6527090823135004  0.6527090823135004  0.0000000000000000   T   T   T
  0.8450127643389620  0.8450127643389620  0.0000000000000000   T   T   T
  0.9031928304764334  0.5968775159832547  0.2506335853986768   T   T   T
  0.5968775159832547  0.9031928304764334  0.2506335853986768   T   T   T
  0.6528528613479045  0.6528528613479045  0.5000000000000000   T   T   T
  0.8477298075900223  0.8477298075900223  0.5000000000000000   T   T   T
  0.9056661003831575  0.0995353155399459  0.7509798827759361   T   T   T
  0.1524406104254593  0.6521924581479740  0.5000000000000000   T   T   T
  0.5968775159832547  0.9031928304764334  0.7493664146013232   T   T   T
  0.3493209368393064  0.3493209368393064  0.5000000000000000   T   T   T
  0.0995353155399459  0.9056661003831575  0.2490201172240639   T   T   T
  0.4024160790477202  0.5963132001957576  0.2497263251110656   T   T   T
  0.3471906486519890  0.8474999298667157  0.0000000000000000   T   T   T
  0.1543684522540049  0.1543684522540049  0.5000000000000000   T   T   T
  0.1522065832507823  0.6530409120908404  0.0000000000000000   T   T   T
  0.0968947549296352  0.3993908574676447  0.2472976587070987   T   T   T
  0.3993908574676447  0.0968947549296352  0.7527023412929014   T   T   T
  0.0968947549296352  0.3993908574676447  0.7527023412929014   T   T   T
  0.3453897054906505  0.3453897054906505  0.0000000000000000   T   T   T
  0.3993908574676447  0.0968947549296352  0.2472976587070987   T   T   T
  0.5016180417441010  0.5016180417441010  0.5000000000000000   T   T   T
  0.7491150202551764  0.7491150202551764  0.7490143978843004   T   T   T
  0.2535232590500360  0.2535232590500360  0.2540962019252225   T   T   T
  0.0007125124777169  0.0007125124777169  0.5000000000000000   T   T   T
  0.7491150202551764  0.7491150202551764  0.2509856021156995   T   T   T
 -0.0003238577590832  0.4992160018980678  0.5000000000000000   T   T   T
  0.2535232590500360  0.2535232590500360  0.7459037980747775   T   T   T
  0.2506174229349388  0.7496646405845862  0.7501344407105288   T   T   T
  0.7496646405845862  0.2506174229349388  0.7501344407105288   T   T   T
  0.4992160018980678 -0.0003238577590832  0.5000000000000000   T   T   T
 -0.0011488952429499  0.5011653433016369  0.0000000000000000   T   T   T
  0.2506174229349388  0.7496646405845862  0.2498655592894713   T   T   T
  0.7496646405845862  0.2506174229349388  0.2498655592894713   T   T   T
  0.5011653433016369 -0.0011488952429499  0.0000000000000000   T   T   T
  0.5009348009137758  0.5009348009137758  0.0000000000000000   T   T   T
 -0.0056641120908405 -0.0056641120908405  0.0000000000000000   T   T   T
  0.1509665933166770  0.1509665933166770  0.0000000000000000   T   T   T
 
  0.00000000E+00  0.00000000E+00  0.00000000E+00
  0.00000000E+00  0.00000000E+00  0.00000000E+00
  0.00000000E+00  0.00000000E+00  0.00000000E+00
  0.00000000E+00  0.00000000E+00  0.00000000E+00
  0.00000000E+00  0.00000000E+00  0.00000000E+00
  0.00000000E+00  0.00000000E+00  0.00000000E+00
  0.00000000E+00  0.00000000E+00  0.00000000E+00
  0.00000000E+00  0.00000000E+00  0.00000000E+00
  0.00000000E+00  0.00000000E+00  0.00000000E+00
  0.00000000E+00  0.00000000E+00  0.00000000E+00
  0.00000000E+00  0.00000000E+00  0.00000000E+00
  0.00000000E+00  0.00000000E+00  0.00000000E+00
  0.00000000E+00  0.00000000E+00  0.00000000E+00
  0.00000000E+00  0.00000000E+00  0.00000000E+00
  0.00000000E+00  0.00000000E+00  0.00000000E+00
  0.00000000E+00  0.00000000E+00  0.00000000E+00
  0.00000000E+00  0.00000000E+00  0.00000000E+00
  0.00000000E+00  0.00000000E+00  0.00000000E+00
  0.00000000E+00  0.00000000E+00  0.00000000E+00
  0.00000000E+00  0.00000000E+00  0.00000000E+00
  0.00000000E+00  0.00000000E+00  0.00000000E+00
  0.00000000E+00  0.00000000E+00  0.00000000E+00
  0.00000000E+00  0.00000000E+00  0.00000000E+00
  0.00000000E+00  0.00000000E+00  0.00000000E+00
  0.00000000E+00  0.00000000E+00  0.00000000E+00
  0.00000000E+00  0.00000000E+00  0.00000000E+00
  0.00000000E+00  0.00000000E+00  0.00000000E+00
  0.00000000E+00  0.00000000E+00  0.00000000E+00
  0.00000000E+00  0.00000000E+00  0.00000000E+00
  0.00000000E+00  0.00000000E+00  0.00000000E+00
  0.00000000E+00  0.00000000E+00  0.00000000E+00
  0.00000000E+00  0.00000000E+00  0.00000000E+00
  0.00000000E+00  0.00000000E+00  0.00000000E+00
  0.00000000E+00  0.00000000E+00  0.00000000E+00
  0.00000000E+00  0.00000000E+00  0.00000000E+00
  0.00000000E+00  0.00000000E+00  0.00000000E+00
  0.00000000E+00  0.00000000E+00  0.00000000E+00
  0.00000000E+00  0.00000000E+00  0.00000000E+00
  0.00000000E+00  0.00000000E+00  0.00000000E+00
  0.00000000E+00  0.00000000E+00  0.00000000E+00
  0.00000000E+00  0.00000000E+00  0.00000000E+00
  0.00000000E+00  0.00000000E+00  0.00000000E+00
  0.00000000E+00  0.00000000E+00  0.00000000E+00
  0.00000000E+00  0.00000000E+00  0.00000000E+00
  0.00000000E+00  0.00000000E+00  0.00000000E+00
  0.00000000E+00  0.00000000E+00  0.00000000E+00
  0.00000000E+00  0.00000000E+00  0.00000000E+00
  0.00000000E+00  0.00000000E+00  0.00000000E+00
