SnO2                                    
   1.00000000000000     
     9.4320271667224951    0.0000000000000000    0.0000000000000000
     0.0000000000000000    9.4320271667224951    0.0000000000000000
     0.0000000000000000    0.0000000000000000    6.3058068431916565
   O    Sn
    33    16
Selective dynamics
Direct
  0.0833148073823868  0.8833815629215440  0.7359265058319201   T   T   T
  0.4031723540855676  0.5907572394871453  0.7467855915392158   T   T   T
  0.8993374351045341  0.5990443071029112  0.7493518328642420   T   T   T
  0.6531099152918344  0.1513703003353089  0.0000000000000000   T   T   T
  0.8471392961798669  0.3480360011029722  0.0000000000000000   T   T   T
  0.9088380971778743  0.0943549020161162  0.2455104489145649   T   T   T
  0.6006625648954588  0.4009556928970827  0.2506481671357501   T   T   T
  0.6645930088820615  0.1473584826954575  0.5000000000000000   T   T   T
  0.3461852106425160  0.8499526273209190  0.5000000000000000   T   T   T
  0.8494682683674245  0.3452194311896574  0.5000000000000000   T   T   T
  0.6006625648954659  0.4009556928970827  0.7493518328642420   T   T   T
  0.6528607038201260  0.6519639988970344  0.0000000000000000   T   T   T
  0.8468900847081798  0.8486296996646984  0.0000000000000000   T   T   T
  0.8993374351045341  0.5990443071029183  0.2506481671357501   T   T   T
  0.5911619028221256  0.9056450979838772  0.2455104489145649   T   T   T
  0.6505317316325684  0.6547805688103486  0.5000000000000000   T   T   T
  0.8354069911179385  0.8526415173045413  0.5000000000000000   T   T   T
  0.9088380971778743  0.0943549020161233  0.7544895510854350   T   T   T
  0.1575885845921687  0.6471885785174616  0.5000000000000000   T   T   T
  0.5911619028221256  0.9056450979838843  0.7544895510854421   T   T   T
  0.3424114154078315  0.3528114214825379  0.5000000000000000   T   T   T
  0.0833148073823868  0.8833815629215440  0.2640734941680725   T   T   T
  0.4031723540855676  0.5907572394871453  0.2532144084607849   T   T   T
  0.3742377887844061  0.8079391026330658  0.0000000000000000   T   T   T
  0.1538147893574840  0.1500473726790745  0.5000000000000000   T   T   T
  0.1257622112155938  0.1920608973669280  0.0000000000000000   T   T   T
  0.1512335326001395  0.6526098681353814  0.0000000000000000   T   T   T
  0.0968276459144324  0.4092427605128544  0.2532144084607920   T   T   T
  0.4166851926176198  0.1166184370784706  0.7359265058319201   T   T   T
  0.0968276459144324  0.4092427605128544  0.7467855915392086   T   T   T
  0.3487664673998533  0.3473901318646202  0.0000000000000000   T   T   T
  0.4166851926176198  0.1166184370784635  0.2640734941680725   T   T   T
  0.2500000000000000  0.0000000000000000  0.0000000000000000   T   T   T
  0.5029186946780825  0.4969577613908970  0.5000000000000000   T   T   T
  0.7465559460799378  0.7543786025841679  0.7520220692876620   T   T   T
  0.2491001888164563  0.2536208224720436  0.2514702754192472   T   T   T
  0.9960834968398269 -0.0025379308765670  0.5000000000000000   T   T   T
  0.7465559460799378  0.7543786025841679  0.2479779307123376   T   T   T
 -0.0029186946780829  0.5030422386090962  0.5000000000000000   T   T   T
  0.2491001888164563  0.2536208224720507  0.7485297245807452   T   T   T
  0.2508998111835435  0.7463791775279506  0.7485297245807452   T   T   T
  0.7534440539200693  0.2456213974158333  0.7520220692876620   T   T   T
  0.5039165031601660  1.0025379308765663  0.5000000000000000   T   T   T
 -0.0019551301267213  0.5013102058504234  0.0000000000000000   T   T   T
  0.2508998111835435  0.7463791775279506  0.2514702754192472   T   T   T
  0.7534440539200622  0.2456213974158333  0.2479779307123376   T   T   T
  0.4807079919680980  0.0064061347023713  0.0000000000000000   T   T   T
  0.5019551301267210  0.4986897941495773  0.0000000000000000   T   T   T
  0.0192920080319017  0.9935938652976229  0.0000000000000000   T   T   T
 
  0.00000000E+00  0.00000000E+00  0.00000000E+00
  0.00000000E+00  0.00000000E+00  0.00000000E+00
  0.00000000E+00  0.00000000E+00  0.00000000E+00
  0.00000000E+00  0.00000000E+00  0.00000000E+00
  0.00000000E+00  0.00000000E+00  0.00000000E+00
  0.00000000E+00  0.00000000E+00  0.00000000E+00
  0.00000000E+00  0.00000000E+00  0.00000000E+00
  0.00000000E+00  0.00000000E+00  0.00000000E+00
  0.00000000E+00  0.00000000E+00  0.00000000E+00
  0.00000000E+00  0.00000000E+00  0.00000000E+00
  0.00000000E+00  0.00000000E+00  0.00000000E+00
  0.00000000E+00  0.00000000E+00  0.00000000E+00
  0.00000000E+00  0.00000000E+00  0.00000000E+00
  0.00000000E+00  0.00000000E+00  0.00000000E+00
  0.00000000E+00  0.00000000E+00  0.00000000E+00
  0.00000000E+00  0.00000000E+00  0.00000000E+00
  0.00000000E+00  0.00000000E+00  0.00000000E+00
  0.00000000E+00  0.00000000E+00  0.00000000E+00
  0.00000000E+00  0.00000000E+00  0.00000000E+00
  0.00000000E+00  0.00000000E+00  0.00000000E+00
  0.00000000E+00  0.00000000E+00  0.00000000E+00
  0.00000000E+00  0.00000000E+00  0.00000000E+00
  0.00000000E+00  0.00000000E+00  0.00000000E+00
  0.00000000E+00  0.00000000E+00  0.00000000E+00
  0.00000000E+00  0.00000000E+00  0.00000000E+00
  0.00000000E+00  0.00000000E+00  0.00000000E+00
  0.00000000E+00  0.00000000E+00  0.00000000E+00
  0.00000000E+00  0.00000000E+00  0.00000000E+00
  0.00000000E+00  0.00000000E+00  0.00000000E+00
  0.00000000E+00  0.00000000E+00  0.00000000E+00
  0.00000000E+00  0.00000000E+00  0.00000000E+00
  0.00000000E+00  0.00000000E+00  0.00000000E+00
  0.00000000E+00  0.00000000E+00  0.00000000E+00
  0.00000000E+00  0.00000000E+00  0.00000000E+00
  0.00000000E+00  0.00000000E+00  0.00000000E+00
  0.00000000E+00  0.00000000E+00  0.00000000E+00
  0.00000000E+00  0.00000000E+00  0.00000000E+00
  0.00000000E+00  0.00000000E+00  0.00000000E+00
  0.00000000E+00  0.00000000E+00  0.00000000E+00
  0.00000000E+00  0.00000000E+00  0.00000000E+00
  0.00000000E+00  0.00000000E+00  0.00000000E+00
  0.00000000E+00  0.00000000E+00  0.00000000E+00
  0.00000000E+00  0.00000000E+00  0.00000000E+00
  0.00000000E+00  0.00000000E+00  0.00000000E+00
  0.00000000E+00  0.00000000E+00  0.00000000E+00
  0.00000000E+00  0.00000000E+00  0.00000000E+00
  0.00000000E+00  0.00000000E+00  0.00000000E+00
  0.00000000E+00  0.00000000E+00  0.00000000E+00
  0.00000000E+00  0.00000000E+00  0.00000000E+00
