SnO2                                    
   1.00000000000000     
     9.4320271667224951    0.0000000000000000    0.0000000000000000
     0.0000000000000000    9.4320271667224951    0.0000000000000000
     0.0000000000000000    0.0000000000000000    6.3058068431916565
   O    Sn   F 
    32    16     1
Selective dynamics
Direct
  0.0877826571623530  0.8924807503377395  0.7440926388361365   T   T   T
  0.4014238898003200  0.5925127826040684  0.7478348770546208   T   T   T
  0.9014202797630915  0.5975546378716321  0.7501943672367374   T   T   T
  0.6552326306666277  0.1534111505225166  0.0000000000000000   T   T   T
  0.8477907975977012  0.3477962507452243  0.0000000000000000   T   T   T
  0.9034869226486220  0.0951150133983630  0.2492550362870366   T   T   T
  0.5985797202369085  0.4024453621283679  0.2498056327632624   T   T   T
  0.6581124058455627  0.1519785921069361  0.5000000000000000   T   T   T
  0.3459334818896706  0.8487075900249071  0.5000000000000000   T   T   T
  0.8480842541051178  0.3469881544936811  0.5000000000000000   T   T   T
  0.5985797202369085  0.4024453621283679  0.7501943672367374   T   T   T
  0.6522092024022988  0.6522037492547758  0.0000000000000000   T   T   T
  0.8447673693333723  0.8465888494774836  0.0000000000000000   T   T   T
  0.9014202797630915  0.5975546378716321  0.2498056327632624   T   T   T
  0.5965130773513780  0.9048849866016370  0.2492550362870366   T   T   T
  0.6519157458948822  0.6530118455063189  0.5000000000000000   T   T   T
  0.8418875941544373  0.8480214078930638  0.5000000000000000   T   T   T
  0.9034869226486220  0.0951150133983630  0.7507449637129633   T   T   T
  0.1536614766060851  0.6500601440260608  0.5000000000000000   T   T   T
  0.5965130773513780  0.9048849866016370  0.7507449637129633   T   T   T
  0.3463385233939150  0.3499398559739393  0.5000000000000000   T   T   T
  0.0877826571623530  0.8924807503377395  0.2559073611638635   T   T   T
  0.4014238898003200  0.5925127826040684  0.2521651229453791   T   T   T
  0.3721794461942555  0.8171810070530731  0.0000000000000000   T   T   T
  0.1540665181103295  0.1512924099750927  0.5000000000000000   T   T   T
  0.1278205538057445  0.1828189929469269  0.0000000000000000   T   T   T
  0.1518621308000375  0.6540593367928169  0.0000000000000000   T   T   T
  0.0985761101996802  0.4074872173959319  0.2521651229453791   T   T   T
  0.4122173428376470  0.1075192496622605  0.7440926388361365   T   T   T
  0.0985761101996802  0.4074872173959319  0.7478348770546208   T   T   T
  0.3481378691999625  0.3459406632071830  0.0000000000000000   T   T   T
  0.4122173428376470  0.1075192496622605  0.2559073611638635   T   T   T
  0.5023593285941437  0.4986524430875820  0.5000000000000000   T   T   T
  0.7484783650103182  0.7506424220019405  0.7502315427956352   T   T   T
  0.2508741406304961  0.2534551835890387  0.2522573492589029   T   T   T
 -0.0027706636015582 -0.0016468925749314  0.5000000000000000   T   T   T
  0.7484783650103182  0.7506424220019405  0.2497684572043649   T   T   T
 -0.0023593285941436  0.5013475569124182  0.5000000000000000   T   T   T
  0.2508741406304961  0.2534551835890387  0.7477426507410969   T   T   T
  0.2491258593695038  0.7465448164109614  0.7477426507410969   T   T   T
  0.7515216349896818  0.2493575779980594  0.7502315427956352   T   T   T
  0.5027706636015582  0.0016468925749314  0.5000000000000000   T   T   T
 -0.0008406945968451  0.5004316344696541  0.0000000000000000   T   T   T
  0.2491258593695038  0.7465448164109614  0.2522573492589029   T   T   T
  0.7515216349896818  0.2493575779980594  0.2497684572043649   T   T   T
  0.4987505134433006  0.0040827046989203  0.0000000000000000   T   T   T
  0.5008406945968451  0.4995683655303459  0.0000000000000000   T   T   T
  0.0012494865566993 -0.0040827046989203  0.0000000000000000   T   T   T
  0.2500000000000000  0.0000000000000000  0.0000000000000000   T   T   T
 
  0.00000000E+00  0.00000000E+00  0.00000000E+00
  0.00000000E+00  0.00000000E+00  0.00000000E+00
  0.00000000E+00  0.00000000E+00  0.00000000E+00
  0.00000000E+00  0.00000000E+00  0.00000000E+00
  0.00000000E+00  0.00000000E+00  0.00000000E+00
  0.00000000E+00  0.00000000E+00  0.00000000E+00
  0.00000000E+00  0.00000000E+00  0.00000000E+00
  0.00000000E+00  0.00000000E+00  0.00000000E+00
  0.00000000E+00  0.00000000E+00  0.00000000E+00
  0.00000000E+00  0.00000000E+00  0.00000000E+00
  0.00000000E+00  0.00000000E+00  0.00000000E+00
  0.00000000E+00  0.00000000E+00  0.00000000E+00
  0.00000000E+00  0.00000000E+00  0.00000000E+00
  0.00000000E+00  0.00000000E+00  0.00000000E+00
  0.00000000E+00  0.00000000E+00  0.00000000E+00
  0.00000000E+00  0.00000000E+00  0.00000000E+00
  0.00000000E+00  0.00000000E+00  0.00000000E+00
  0.00000000E+00  0.00000000E+00  0.00000000E+00
  0.00000000E+00  0.00000000E+00  0.00000000E+00
  0.00000000E+00  0.00000000E+00  0.00000000E+00
  0.00000000E+00  0.00000000E+00  0.00000000E+00
  0.00000000E+00  0.00000000E+00  0.00000000E+00
  0.00000000E+00  0.00000000E+00  0.00000000E+00
  0.00000000E+00  0.00000000E+00  0.00000000E+00
  0.00000000E+00  0.00000000E+00  0.00000000E+00
  0.00000000E+00  0.00000000E+00  0.00000000E+00
  0.00000000E+00  0.00000000E+00  0.00000000E+00
  0.00000000E+00  0.00000000E+00  0.00000000E+00
  0.00000000E+00  0.00000000E+00  0.00000000E+00
  0.00000000E+00  0.00000000E+00  0.00000000E+00
  0.00000000E+00  0.00000000E+00  0.00000000E+00
  0.00000000E+00  0.00000000E+00  0.00000000E+00
  0.00000000E+00  0.00000000E+00  0.00000000E+00
  0.00000000E+00  0.00000000E+00  0.00000000E+00
  0.00000000E+00  0.00000000E+00  0.00000000E+00
  0.00000000E+00  0.00000000E+00  0.00000000E+00
  0.00000000E+00  0.00000000E+00  0.00000000E+00
  0.00000000E+00  0.00000000E+00  0.00000000E+00
  0.00000000E+00  0.00000000E+00  0.00000000E+00
  0.00000000E+00  0.00000000E+00  0.00000000E+00
  0.00000000E+00  0.00000000E+00  0.00000000E+00
  0.00000000E+00  0.00000000E+00  0.00000000E+00
  0.00000000E+00  0.00000000E+00  0.00000000E+00
  0.00000000E+00  0.00000000E+00  0.00000000E+00
  0.00000000E+00  0.00000000E+00  0.00000000E+00
  0.00000000E+00  0.00000000E+00  0.00000000E+00
  0.00000000E+00  0.00000000E+00  0.00000000E+00
  0.00000000E+00  0.00000000E+00  0.00000000E+00
  0.00000000E+00  0.00000000E+00  0.00000000E+00
