SnO2                                    
   1.00000000000000     
     9.4320271667224951    0.0000000000000000    0.0000000000000000
     0.0000000000000000    9.4320271667224951    0.0000000000000000
     0.0000000000000000    0.0000000000000000    6.3058068431916565
   O    Sn
    32    17
Selective dynamics
Direct
  0.0953807262005849  0.9116387773528177  0.7553509914904037   T   T   T
  0.3898254762554932  0.5839236337357834  0.7196792886697406   T   T   T
  0.8993556751953207  0.6009113883895432  0.7661251996011483   T   T   T
  0.6574264014187891  0.1494352888646482  0.0000000000000000   T   T   T
  0.8621599710575581  0.3434396322875382  0.0000000000000000   T   T   T
  0.9026415037043506  0.0988750873738389  0.2545460273429883   T   T   T
  0.6006443248046793  0.3990886116104636  0.2338748003988523   T   T   T
  0.6496220943589720  0.1571503927281627  0.5000000000000000   T   T   T
  0.3464150966157405  0.8501976680854650  0.5000000000000000   T   T   T
  0.8294285743953386  0.3513409337872592  0.5000000000000000   T   T   T
  0.6006443248046793  0.3990886116104636  0.7661251996011483   T   T   T
  0.6378400289424419  0.6565603677124608  0.0000000000000000   T   T   T
  0.8425735985812109  0.8505647111353450  0.0000000000000000   T   T   T
  0.8993556751953207  0.6009113883895432  0.2338748003988523   T   T   T
  0.5973584962956494  0.9011249126261476  0.2545460273429883   T   T   T
  0.6705714256046614  0.6486590662127472  0.5000000000000000   T   T   T
  0.8503779056410280  0.8428496072718367  0.5000000000000000   T   T   T
  0.9026415037043506  0.0988750873738389  0.7454539726570198   T   T   T
  0.1367116892809444  0.6710082161331393  0.5000000000000000   T   T   T
  0.5973584962956494  0.9011249126261476  0.7454539726570198   T   T   T
  0.3632883107190554  0.3289917838668615  0.5000000000000000   T   T   T
  0.0953807262005849  0.9116387773528177  0.2446490085095970   T   T   T
  0.3898254762554929  0.5839236337357834  0.2803207113302667   T   T   T
  0.3600454619151717  0.8427410659961340  0.0000000000000000   T   T   T
  0.1535849033842595  0.1498023319145426  0.5000000000000000   T   T   T
  0.1399545380848289  0.1572589340038661  0.0000000000000000   T   T   T
  0.1623013273879060  0.6548116061405482  0.0000000000000000   T   T   T
  0.1101745237445071  0.4160763662642241  0.2803207113302665   T   T   T
  0.4046192737994149  0.0883612226471893  0.7553509914904037   T   T   T
  0.1101745237445071  0.4160763662642241  0.7196792886697406   T   T   T
  0.3376986726120942  0.3451883938594515  0.0000000000000000   T   T   T
  0.4046192737994149  0.0883612226471893  0.2446490085095971   T   T   T
  0.5467406254021859  0.4871799042590506  0.5000000000000000   T   T   T
  0.7485379619457365  0.7558177940523448  0.7549538585508029   T   T   T
  0.2504396270469500  0.2276372768568610  0.2433946930049913   T   T   T
 -0.0047842858054850 -0.0008290475335152  0.5000000000000000   T   T   T
  0.7485379619457365  0.7558177940523448  0.2450461414491890   T   T   T
  0.9532593745978070  0.5128200957409422  0.5000000000000000   T   T   T
  0.2504396270469500  0.2276372768568610  0.7566053069950016   T   T   T
  0.2495603729530498  0.7723627231431458  0.7566053069950087   T   T   T
  0.7514620380542635  0.2441822059476547  0.7549538585508029   T   T   T
  0.5047842858054846  1.0008290475335149  0.5000000000000000   T   T   T
  0.0081896020593089  0.5023097361537846  0.0000000000000000   T   T   T
  0.2495603729530498  0.7723627231431458  0.2433946930049913   T   T   T
  0.7514620380542635  0.2441822059476547  0.2450461414491962   T   T   T
  0.5105304606363233  0.9965567066293375  0.0000000000000000   T   T   T
  0.4918103979406913  0.4976902638462077  0.0000000000000000   T   T   T
  0.9894695393636838  0.0034432933706628  0.0000000000000000   T   T   T
  0.2500000000000000  0.5000000000000000  0.5000000000000000   T   T   T
 
  0.00000000E+00  0.00000000E+00  0.00000000E+00
  0.00000000E+00  0.00000000E+00  0.00000000E+00
  0.00000000E+00  0.00000000E+00  0.00000000E+00
  0.00000000E+00  0.00000000E+00  0.00000000E+00
  0.00000000E+00  0.00000000E+00  0.00000000E+00
  0.00000000E+00  0.00000000E+00  0.00000000E+00
  0.00000000E+00  0.00000000E+00  0.00000000E+00
  0.00000000E+00  0.00000000E+00  0.00000000E+00
  0.00000000E+00  0.00000000E+00  0.00000000E+00
  0.00000000E+00  0.00000000E+00  0.00000000E+00
  0.00000000E+00  0.00000000E+00  0.00000000E+00
  0.00000000E+00  0.00000000E+00  0.00000000E+00
  0.00000000E+00  0.00000000E+00  0.00000000E+00
  0.00000000E+00  0.00000000E+00  0.00000000E+00
  0.00000000E+00  0.00000000E+00  0.00000000E+00
  0.00000000E+00  0.00000000E+00  0.00000000E+00
  0.00000000E+00  0.00000000E+00  0.00000000E+00
  0.00000000E+00  0.00000000E+00  0.00000000E+00
  0.00000000E+00  0.00000000E+00  0.00000000E+00
  0.00000000E+00  0.00000000E+00  0.00000000E+00
  0.00000000E+00  0.00000000E+00  0.00000000E+00
  0.00000000E+00  0.00000000E+00  0.00000000E+00
  0.00000000E+00  0.00000000E+00  0.00000000E+00
  0.00000000E+00  0.00000000E+00  0.00000000E+00
  0.00000000E+00  0.00000000E+00  0.00000000E+00
  0.00000000E+00  0.00000000E+00  0.00000000E+00
  0.00000000E+00  0.00000000E+00  0.00000000E+00
  0.00000000E+00  0.00000000E+00  0.00000000E+00
  0.00000000E+00  0.00000000E+00  0.00000000E+00
  0.00000000E+00  0.00000000E+00  0.00000000E+00
  0.00000000E+00  0.00000000E+00  0.00000000E+00
  0.00000000E+00  0.00000000E+00  0.00000000E+00
  0.00000000E+00  0.00000000E+00  0.00000000E+00
  0.00000000E+00  0.00000000E+00  0.00000000E+00
  0.00000000E+00  0.00000000E+00  0.00000000E+00
  0.00000000E+00  0.00000000E+00  0.00000000E+00
  0.00000000E+00  0.00000000E+00  0.00000000E+00
  0.00000000E+00  0.00000000E+00  0.00000000E+00
  0.00000000E+00  0.00000000E+00  0.00000000E+00
  0.00000000E+00  0.00000000E+00  0.00000000E+00
  0.00000000E+00  0.00000000E+00  0.00000000E+00
  0.00000000E+00  0.00000000E+00  0.00000000E+00
  0.00000000E+00  0.00000000E+00  0.00000000E+00
  0.00000000E+00  0.00000000E+00  0.00000000E+00
  0.00000000E+00  0.00000000E+00  0.00000000E+00
  0.00000000E+00  0.00000000E+00  0.00000000E+00
  0.00000000E+00  0.00000000E+00  0.00000000E+00
  0.00000000E+00  0.00000000E+00  0.00000000E+00
  0.00000000E+00  0.00000000E+00  0.00000000E+00
