SnO2                                    
   1.00000000000000     
     9.4320271667224951    0.0000000000000000    0.0000000000000000
     0.0000000000000000    9.4320271667224951    0.0000000000000000
     0.0000000000000000    0.0000000000000000    6.3058068431916565
   O    Sn
    31    16
Selective dynamics
Direct
  0.1008797940952731  0.9085400092298616  0.7542122863504309   T   T   T
  0.4022270038615450  0.5952840427195774  0.7503431507601203   T   T   T
  0.9031160275157937  0.5974516287682159  0.7492697916128240   T   T   T
  0.6534836107742532  0.1519614954561371  0.0000000000000000   T   T   T
  0.8463342974957226  0.3480148808298800  0.0000000000000000   T   T   T
  0.9085400092298616  0.1008797940952731  0.2457877136495693   T   T   T
  0.5952840427195774  0.4022270038615450  0.2496568492398799   T   T   T
  0.6532890543629631  0.1521124062342741  0.5000000000000000   T   T   T
  0.3464598579045837  0.8468695834409832  0.5000000000000000   T   T   T
  0.8468695834409832  0.3464598579045837  0.5000000000000000   T   T   T
  0.5952840427195774  0.4022270038615450  0.7503431507601203   T   T   T
  0.6524969266317550  0.6524969266317550  0.0000000000000000   T   T   T
  0.8430076361602842  0.8430076361602842  0.0000000000000000   T   T   T
  0.9031160275157937  0.5974516287682159  0.2507302083871760   T   T   T
  0.5974516287682159  0.9031160275157937  0.2507302083871760   T   T   T
  0.6529418223728543  0.6529418223728543  0.5000000000000000   T   T   T
  0.8482989452005344  0.8482989452005344  0.5000000000000000   T   T   T
  0.9085400092298616  0.1008797940952731  0.7542122863504309   T   T   T
  0.1521124062342741  0.6532890543629631  0.5000000000000000   T   T   T
  0.5974516287682159  0.9031160275157937  0.7492697916128240   T   T   T
  0.3498173944747318  0.3498173944747318  0.5000000000000000   T   T   T
  0.1008797940952731  0.9085400092298616  0.2457877136495693   T   T   T
  0.4022270038615450  0.5952840427195774  0.2496568492398799   T   T   T
  0.3480148808298800  0.8463342974957226  0.0000000000000000   T   T   T
  0.1544603980004915  0.1544603980004915  0.5000000000000000   T   T   T
  0.1519614954561371  0.6534836107742532  0.0000000000000000   T   T   T
  0.0957108149155467  0.3990158052241389  0.2472994386966550   T   T   T
  0.3990158052241389  0.0957108149155467  0.7527005613033450   T   T   T
  0.0957108149155467  0.3990158052241389  0.7527005613033450   T   T   T
  0.3438049740187704  0.3438049740187704  0.0000000000000000   T   T   T
  0.3990158052241389  0.0957108149155467  0.2472994386966550   T   T   T
  0.5019388393263451  0.5019388393263451  0.5000000000000000   T   T   T
  0.7483369548719612  0.7483369548719612  0.7484451261117053   T   T   T
  0.2544854577369565  0.2544854577369565  0.2564089158688611   T   T   T
  0.0012683689032715  0.0012683689032715  0.5000000000000000   T   T   T
  0.7483369548719612  0.7483369548719612  0.2515548738882946   T   T   T
  0.9989828018192668  0.4997716038270314  0.5000000000000000   T   T   T
  0.2544854577369565  0.2544854577369565  0.7435910841311388   T   T   T
  0.2511181322095489  0.7493604362853369  0.7504623255367535   T   T   T
  0.7493604362853369  0.2511181322095489  0.7504623255367535   T   T   T
  0.4997716038270314  0.9989828018192668  0.5000000000000000   T   T   T
  0.9983962654873266  0.5013298816487348  0.0000000000000000   T   T   T
  0.2511181322095489  0.7493604362853369  0.2495376744632465   T   T   T
  0.7493604362853369  0.2511181322095489  0.2495376744632465   T   T   T
  0.5013298816487348  0.9983962654873266  0.0000000000000000   T   T   T
  0.5011816160338497  0.5011816160338497  0.0000000000000000   T   T   T
 -0.0101999627981332 -0.0101999627981332  0.0000000000000000   T   T   T
 
  0.00000000E+00  0.00000000E+00  0.00000000E+00
  0.00000000E+00  0.00000000E+00  0.00000000E+00
  0.00000000E+00  0.00000000E+00  0.00000000E+00
  0.00000000E+00  0.00000000E+00  0.00000000E+00
  0.00000000E+00  0.00000000E+00  0.00000000E+00
  0.00000000E+00  0.00000000E+00  0.00000000E+00
  0.00000000E+00  0.00000000E+00  0.00000000E+00
  0.00000000E+00  0.00000000E+00  0.00000000E+00
  0.00000000E+00  0.00000000E+00  0.00000000E+00
  0.00000000E+00  0.00000000E+00  0.00000000E+00
  0.00000000E+00  0.00000000E+00  0.00000000E+00
  0.00000000E+00  0.00000000E+00  0.00000000E+00
  0.00000000E+00  0.00000000E+00  0.00000000E+00
  0.00000000E+00  0.00000000E+00  0.00000000E+00
  0.00000000E+00  0.00000000E+00  0.00000000E+00
  0.00000000E+00  0.00000000E+00  0.00000000E+00
  0.00000000E+00  0.00000000E+00  0.00000000E+00
  0.00000000E+00  0.00000000E+00  0.00000000E+00
  0.00000000E+00  0.00000000E+00  0.00000000E+00
  0.00000000E+00  0.00000000E+00  0.00000000E+00
  0.00000000E+00  0.00000000E+00  0.00000000E+00
  0.00000000E+00  0.00000000E+00  0.00000000E+00
  0.00000000E+00  0.00000000E+00  0.00000000E+00
  0.00000000E+00  0.00000000E+00  0.00000000E+00
  0.00000000E+00  0.00000000E+00  0.00000000E+00
  0.00000000E+00  0.00000000E+00  0.00000000E+00
  0.00000000E+00  0.00000000E+00  0.00000000E+00
  0.00000000E+00  0.00000000E+00  0.00000000E+00
  0.00000000E+00  0.00000000E+00  0.00000000E+00
  0.00000000E+00  0.00000000E+00  0.00000000E+00
  0.00000000E+00  0.00000000E+00  0.00000000E+00
  0.00000000E+00  0.00000000E+00  0.00000000E+00
  0.00000000E+00  0.00000000E+00  0.00000000E+00
  0.00000000E+00  0.00000000E+00  0.00000000E+00
  0.00000000E+00  0.00000000E+00  0.00000000E+00
  0.00000000E+00  0.00000000E+00  0.00000000E+00
  0.00000000E+00  0.00000000E+00  0.00000000E+00
  0.00000000E+00  0.00000000E+00  0.00000000E+00
  0.00000000E+00  0.00000000E+00  0.00000000E+00
  0.00000000E+00  0.00000000E+00  0.00000000E+00
  0.00000000E+00  0.00000000E+00  0.00000000E+00
  0.00000000E+00  0.00000000E+00  0.00000000E+00
  0.00000000E+00  0.00000000E+00  0.00000000E+00
  0.00000000E+00  0.00000000E+00  0.00000000E+00
  0.00000000E+00  0.00000000E+00  0.00000000E+00
  0.00000000E+00  0.00000000E+00  0.00000000E+00
  0.00000000E+00  0.00000000E+00  0.00000000E+00
