SnO2                                    
   1.00000000000000     
     9.4320271667224951    0.0000000000000000    0.0000000000000000
     0.0000000000000000    9.4320271667224951    0.0000000000000000
     0.0000000000000000    0.0000000000000000    6.3058068431916565
   O    Sn
    32    17
Selective dynamics
Direct
  0.0980681611953363  0.9176348990648834  0.7533487285017667   T   T   T
  0.3582586161602710  0.5901125558384315  0.7630795960229522   T   T   T
  0.8954291865329476  0.6217091770380123  0.8113145405951986   T   T   T
  0.6644974755625462  0.1207843662118175  0.0000000000000000   T   T   T
  0.8702748211934785  0.3332940694329340  0.0000000000000000   T   T   T
  0.9092625483587026  0.1061818011660128  0.2511027692175498   T   T   T
  0.6045708134670524  0.3782908229619922  0.1886854594047998   T   T   T
  0.6454997831027195  0.1298988605661042  0.5000000000000000   T   T   T
  0.3486425530366596  0.8478823658374967  0.5000000000000000   T   T   T
  0.7898059756013280  0.3207735798593357  0.5000000000000000   T   T   T
  0.6045708134670524  0.3782908229619963  0.8113145405951986   T   T   T
  0.6297251788065215  0.6667059305670694  0.0000000000000000   T   T   T
  0.8355025244374538  0.8792156337881800  0.0000000000000000   T   T   T
  0.8954291865329476  0.6217091770380123  0.1886854594047992   T   T   T
  0.5907374516412974  0.8938181988339798  0.2511027692175498   T   T   T
  0.7101940243986720  0.6792264201406731  0.5000000000000000   T   T   T
  0.8545002168972805  0.8701011394339011  0.5000000000000000   T   T   T
  0.9092625483587026  0.1061818011660128  0.7488972307824555   T   T   T
  0.1532675923198998  0.6823494826805172  0.5000000000000000   T   T   T
  0.5907374516412974  0.8938181988339798  0.7488972307824555   T   T   T
  0.3467324076801030  0.3176505173194832  0.5000000000000000   T   T   T
  0.0980681611953363  0.9176348990648834  0.2466512714982269   T   T   T
  0.3582586161602710  0.5901125558384315  0.2369204039770509   T   T   T
  0.3484731846480205  0.8512907238069304  0.0000000000000000   T   T   T
  0.1513574469633409  0.1521176341625055  0.5000000000000000   T   T   T
  0.1515268153519808  0.1487092761930675  0.0000000000000000   T   T   T
  0.1383572933494183  0.6771284929288782  0.0000000000000000   T   T   T
  0.1417413838397295  0.4098874441615769  0.2369204039770509   T   T   T
  0.4019318388046619  0.0823651009351185  0.7533487285017667   T   T   T
  0.1417413838397304  0.4098874441615769  0.7630795960229522   T   T   T
  0.3616427066505876  0.3228715070711199  0.0000000000000000   T   T   T
  0.4019318388046619  0.0823651009351185  0.2466512714982268   T   T   T
  0.5592951804390895  0.5042207318398033  0.5000000000000000   T   T   T
  0.7577563404393177  0.7691251728636569  0.7618455946760527   T   T   T
  0.2559433157242571  0.2299871570881575  0.2410105470084468   T   T   T
  0.0011195401609402  0.0098246556994886  0.5000000000000000   T   T   T
  0.7577563404393177  0.7691251728636576  0.2381544053239426   T   T   T
 -0.0592951804390951  0.4957792681601935  0.5000000000000000   T   T   T
  0.2559433157242571  0.2299871570881575  0.7589894529915459   T   T   T
  0.2440566842757441  0.7700128429118474  0.7589894529915515   T   T   T
  0.7422436595606823  0.2308748271363393  0.7618455946760527   T   T   T
  0.4988804598390548 -0.0098246556994886  0.5000000000000000   T   T   T
  0.0119876325453384  0.4998834781330309  0.0000000000000000   T   T   T
  0.2440566842757441  0.7700128429118474  0.2410105470084468   T   T   T
  0.7422436595606823  0.2308748271363408  0.2381544053239431   T   T   T
  0.5026606778646239 -0.0099213618971360  0.0000000000000000   T   T   T
  0.4880123674546605  0.5001165218669653  0.0000000000000000   T   T   T
 -0.0026606778646183  0.0099213618971361  0.0000000000000000   T   T   T
  0.2500000000000000  0.5000000000000000  0.5000000000000000   T   T   T
 
  0.00000000E+00  0.00000000E+00  0.00000000E+00
  0.00000000E+00  0.00000000E+00  0.00000000E+00
  0.00000000E+00  0.00000000E+00  0.00000000E+00
  0.00000000E+00  0.00000000E+00  0.00000000E+00
  0.00000000E+00  0.00000000E+00  0.00000000E+00
  0.00000000E+00  0.00000000E+00  0.00000000E+00
  0.00000000E+00  0.00000000E+00  0.00000000E+00
  0.00000000E+00  0.00000000E+00  0.00000000E+00
  0.00000000E+00  0.00000000E+00  0.00000000E+00
  0.00000000E+00  0.00000000E+00  0.00000000E+00
  0.00000000E+00  0.00000000E+00  0.00000000E+00
  0.00000000E+00  0.00000000E+00  0.00000000E+00
  0.00000000E+00  0.00000000E+00  0.00000000E+00
  0.00000000E+00  0.00000000E+00  0.00000000E+00
  0.00000000E+00  0.00000000E+00  0.00000000E+00
  0.00000000E+00  0.00000000E+00  0.00000000E+00
  0.00000000E+00  0.00000000E+00  0.00000000E+00
  0.00000000E+00  0.00000000E+00  0.00000000E+00
  0.00000000E+00  0.00000000E+00  0.00000000E+00
  0.00000000E+00  0.00000000E+00  0.00000000E+00
  0.00000000E+00  0.00000000E+00  0.00000000E+00
  0.00000000E+00  0.00000000E+00  0.00000000E+00
  0.00000000E+00  0.00000000E+00  0.00000000E+00
  0.00000000E+00  0.00000000E+00  0.00000000E+00
  0.00000000E+00  0.00000000E+00  0.00000000E+00
  0.00000000E+00  0.00000000E+00  0.00000000E+00
  0.00000000E+00  0.00000000E+00  0.00000000E+00
  0.00000000E+00  0.00000000E+00  0.00000000E+00
  0.00000000E+00  0.00000000E+00  0.00000000E+00
  0.00000000E+00  0.00000000E+00  0.00000000E+00
  0.00000000E+00  0.00000000E+00  0.00000000E+00
  0.00000000E+00  0.00000000E+00  0.00000000E+00
  0.00000000E+00  0.00000000E+00  0.00000000E+00
  0.00000000E+00  0.00000000E+00  0.00000000E+00
  0.00000000E+00  0.00000000E+00  0.00000000E+00
  0.00000000E+00  0.00000000E+00  0.00000000E+00
  0.00000000E+00  0.00000000E+00  0.00000000E+00
  0.00000000E+00  0.00000000E+00  0.00000000E+00
  0.00000000E+00  0.00000000E+00  0.00000000E+00
  0.00000000E+00  0.00000000E+00  0.00000000E+00
  0.00000000E+00  0.00000000E+00  0.00000000E+00
  0.00000000E+00  0.00000000E+00  0.00000000E+00
  0.00000000E+00  0.00000000E+00  0.00000000E+00
  0.00000000E+00  0.00000000E+00  0.00000000E+00
  0.00000000E+00  0.00000000E+00  0.00000000E+00
  0.00000000E+00  0.00000000E+00  0.00000000E+00
  0.00000000E+00  0.00000000E+00  0.00000000E+00
  0.00000000E+00  0.00000000E+00  0.00000000E+00
  0.00000000E+00  0.00000000E+00  0.00000000E+00
