SnO2                                    
   1.00000000000000     
     9.4320271667224951    0.0000000000000000    0.0000000000000000
     0.0000000000000000    9.4320271667224951    0.0000000000000000
     0.0000000000000000    0.0000000000000000    6.3058068431916565
   O    Sn   F 
    32    16     1
Selective dynamics
Direct
  0.0864183813413700  0.8931946160599783  0.7469641522151210   T   T   T
  0.4020662926067059  0.5985886720255700  0.7516102460715279   T   T   T
  0.9029358983264678  0.5962005157075829  0.7493401750041658   T   T   T
  0.6597770045337956  0.1560055853041040  0.0000000000000000   T   T   T
  0.8482184899592551  0.3478190321115167  0.0000000000000000   T   T   T
  0.9041357880196105  0.0972906213939994  0.2490510663272143   T   T   T
  0.5970641016735322  0.4037994842924172  0.2506598249958342   T   T   T
  0.6580840308814054  0.1521641216785280  0.5000000000000000   T   T   T
  0.3424641497882238  0.8489728255715635  0.5000000000000000   T   T   T
  0.8483848521158001  0.3469634867750044  0.5000000000000000   T   T   T
  0.5970641016735322  0.4037994842924172  0.7493401750041658   T   T   T
  0.6517815100407449  0.6521809678884832  0.0000000000000000   T   T   T
  0.8402229954662044  0.8439944146958958  0.0000000000000000   T   T   T
  0.9029358983264678  0.5962005157075829  0.2506598249958342   T   T   T
  0.5958642119803895  0.9027093786060008  0.2490510663272143   T   T   T
  0.6516151478841999  0.6530365132249952  0.5000000000000000   T   T   T
  0.8419159691185946  0.8478358783214719  0.5000000000000000   T   T   T
  0.9041357880196105  0.0972906213939994  0.7509489336727856   T   T   T
  0.1523681962855364  0.6457048228565972  0.5000000000000000   T   T   T
  0.5958642119803895  0.9027093786060008  0.7509489336727856   T   T   T
  0.3476318037144637  0.3542951771434029  0.5000000000000000   T   T   T
  0.0864183813413700  0.8931946160599783  0.2530358477848791   T   T   T
  0.4020662926067059  0.5985886720255700  0.2483897539284722   T   T   T
  0.3552220845279321  0.8409954598293257  0.0000000000000000   T   T   T
  0.1575358502117764  0.1510271744284365  0.5000000000000000   T   T   T
  0.1447779154720679  0.1590045401706744  0.0000000000000000   T   T   T
  0.1528898077348140  0.6533112660390799  0.0000000000000000   T   T   T
  0.0979337073932941  0.4014113279744299  0.2483897539284722   T   T   T
  0.4135816186586299  0.1068053839400216  0.7469641522151210   T   T   T
  0.0979337073932941  0.4014113279744299  0.7516102460715279   T   T   T
  0.3471101922651859  0.3466887339609201  0.0000000000000000   T   T   T
  0.4135816186586299  0.1068053839400216  0.2530358477848791   T   T   T
  0.5017636040925727  0.5027359161697419  0.5000000000000000   T   T   T
  0.7483872548773539  0.7478347609403124  0.7488606306310283   T   T   T
  0.2554890417315314  0.2549003749457813  0.2556620934207952   T   T   T
 -0.0024467808807714 -0.0007438006981122  0.5000000000000000   T   T   T
  0.7483872548773539  0.7478347609403124  0.2511393693689717   T   T   T
 -0.0017636040925725  0.4972640838302582  0.5000000000000000   T   T   T
  0.2554890417315314  0.2549003749457813  0.7443379065792048   T   T   T
  0.2445109582684686  0.7450996250542187  0.7443379065792048   T   T   T
  0.7516127451226461  0.2521652390596879  0.7488606306310283   T   T   T
  0.5024467808807713  0.0007438006981122  0.5000000000000000   T   T   T
 -0.0012092502670696  0.4999888175032383  0.0000000000000000   T   T   T
  0.2445109582684686  0.7450996250542187  0.2556620934207952   T   T   T
  0.7516127451226461  0.2521652390596879  0.2511393693689717   T   T   T
  0.5109238990459890  0.0085856964123898  0.0000000000000000   T   T   T
  0.5012092502670698  0.5000111824967615  0.0000000000000000   T   T   T
 -0.0109238990459891 -0.0085856964123898  0.0000000000000000   T   T   T
  0.2500000000000000  0.0000000000000000  0.0000000000000000   T   T   T
 
  0.00000000E+00  0.00000000E+00  0.00000000E+00
  0.00000000E+00  0.00000000E+00  0.00000000E+00
  0.00000000E+00  0.00000000E+00  0.00000000E+00
  0.00000000E+00  0.00000000E+00  0.00000000E+00
  0.00000000E+00  0.00000000E+00  0.00000000E+00
  0.00000000E+00  0.00000000E+00  0.00000000E+00
  0.00000000E+00  0.00000000E+00  0.00000000E+00
  0.00000000E+00  0.00000000E+00  0.00000000E+00
  0.00000000E+00  0.00000000E+00  0.00000000E+00
  0.00000000E+00  0.00000000E+00  0.00000000E+00
  0.00000000E+00  0.00000000E+00  0.00000000E+00
  0.00000000E+00  0.00000000E+00  0.00000000E+00
  0.00000000E+00  0.00000000E+00  0.00000000E+00
  0.00000000E+00  0.00000000E+00  0.00000000E+00
  0.00000000E+00  0.00000000E+00  0.00000000E+00
  0.00000000E+00  0.00000000E+00  0.00000000E+00
  0.00000000E+00  0.00000000E+00  0.00000000E+00
  0.00000000E+00  0.00000000E+00  0.00000000E+00
  0.00000000E+00  0.00000000E+00  0.00000000E+00
  0.00000000E+00  0.00000000E+00  0.00000000E+00
  0.00000000E+00  0.00000000E+00  0.00000000E+00
  0.00000000E+00  0.00000000E+00  0.00000000E+00
  0.00000000E+00  0.00000000E+00  0.00000000E+00
  0.00000000E+00  0.00000000E+00  0.00000000E+00
  0.00000000E+00  0.00000000E+00  0.00000000E+00
  0.00000000E+00  0.00000000E+00  0.00000000E+00
  0.00000000E+00  0.00000000E+00  0.00000000E+00
  0.00000000E+00  0.00000000E+00  0.00000000E+00
  0.00000000E+00  0.00000000E+00  0.00000000E+00
  0.00000000E+00  0.00000000E+00  0.00000000E+00
  0.00000000E+00  0.00000000E+00  0.00000000E+00
  0.00000000E+00  0.00000000E+00  0.00000000E+00
  0.00000000E+00  0.00000000E+00  0.00000000E+00
  0.00000000E+00  0.00000000E+00  0.00000000E+00
  0.00000000E+00  0.00000000E+00  0.00000000E+00
  0.00000000E+00  0.00000000E+00  0.00000000E+00
  0.00000000E+00  0.00000000E+00  0.00000000E+00
  0.00000000E+00  0.00000000E+00  0.00000000E+00
  0.00000000E+00  0.00000000E+00  0.00000000E+00
  0.00000000E+00  0.00000000E+00  0.00000000E+00
  0.00000000E+00  0.00000000E+00  0.00000000E+00
  0.00000000E+00  0.00000000E+00  0.00000000E+00
  0.00000000E+00  0.00000000E+00  0.00000000E+00
  0.00000000E+00  0.00000000E+00  0.00000000E+00
  0.00000000E+00  0.00000000E+00  0.00000000E+00
  0.00000000E+00  0.00000000E+00  0.00000000E+00
  0.00000000E+00  0.00000000E+00  0.00000000E+00
  0.00000000E+00  0.00000000E+00  0.00000000E+00
  0.00000000E+00  0.00000000E+00  0.00000000E+00
