SnO2                                    
   1.00000000000000     
     9.4320271667224951    0.0000000000000000    0.0000000000000000
     0.0000000000000000    9.4320271667224951    0.0000000000000000
     0.0000000000000000    0.0000000000000000    6.3058068431916565
   O    Sn
    32    15
Selective dynamics
Direct
  0.1026164982626992  0.8973835017373011  0.7250049499504225   T   T   T
  0.4021215337913648  0.5978784662086354  0.7493536550820892   T   T   T
  0.9034687949982361  0.5958063872982640  0.7499001890536046   T   T   T
  0.6497787146257015  0.1552694950027572  0.0000000000000000   T   T   T
  0.8447305049972429  0.3502212853742988  0.0000000000000000   T   T   T
  0.8973835017373011  0.1026164982626992  0.2749950500495774   T   T   T
  0.5978784662086354  0.4021215337913648  0.2506463449179110   T   T   T
  0.6422049552804739  0.1593912305185631  0.5000000000000000   T   T   T
  0.3577950447195263  0.8406087694814367  0.5000000000000000   T   T   T
  0.8406087694814367  0.3577950447195263  0.5000000000000000   T   T   T
  0.5978784662086354  0.4021215337913648  0.7493536550820892   T   T   T
  0.6485556007578348  0.6485556007578348  0.0000000000000000   T   T   T
  0.8410670837952309  0.8410670837952309  0.0000000000000000   T   T   T
  0.9034687949982361  0.5958063872982640  0.2500998109463952   T   T   T
  0.5958063872982640  0.9034687949982361  0.2500998109463952   T   T   T
  0.6530843742439082  0.6530843742439082  0.5000000000000000   T   T   T
  0.8438524941747807  0.8438524941747807  0.5000000000000000   T   T   T
  0.8973835017373011  0.1026164982626992  0.7250049499504225   T   T   T
  0.1593912305185631  0.6422049552804739  0.5000000000000000   T   T   T
  0.5958063872982640  0.9034687949982361  0.7499001890536046   T   T   T
  0.3469156257560921  0.3469156257560921  0.5000000000000000   T   T   T
  0.1026164982626992  0.8973835017373011  0.2749950500495774   T   T   T
  0.4021215337913648  0.5978784662086354  0.2506463449179110   T   T   T
  0.3502212853742988  0.8447305049972429  0.0000000000000000   T   T   T
  0.1561475058252194  0.1561475058252194  0.5000000000000000   T   T   T
  0.1589329162047692  0.1589329162047692  0.0000000000000000   T   T   T
  0.1552694950027572  0.6497787146257015  0.0000000000000000   T   T   T
  0.0965312050017639  0.4041936127017365  0.2500998109463952   T   T   T
  0.4041936127017365  0.0965312050017639  0.7499001890536046   T   T   T
  0.0965312050017639  0.4041936127017365  0.7499001890536046   T   T   T
  0.3514443992421651  0.3514443992421651  0.0000000000000000   T   T   T
  0.4041936127017365  0.0965312050017639  0.2500998109463952   T   T   T
  0.5000000000000000  0.5000000000000000  0.5000000000000000   T   T   T
  0.7529030488208879  0.7529030488208879  0.7541896446635870   T   T   T
  0.2470969511791123  0.2470969511791123  0.2458103553364136   T   T   T
  0.0000000000000000  0.0000000000000000  0.5000000000000000   T   T   T
  0.7529030488208879  0.7529030488208878  0.2458103553364136   T   T   T
  0.0000000000000000  0.5000000000000000  0.5000000000000000   T   T   T
  0.2470969511791123  0.2470969511791123  0.7541896446635870   T   T   T
  0.2469272243254868  0.7530727756745133  0.7485983385054473   T   T   T
  0.7530727756745133  0.2469272243254868  0.7485983385054473   T   T   T
  0.5000000000000000  0.0000000000000000  0.5000000000000000   T   T   T
  0.0000000000000000  0.5000000000000000  0.0000000000000000   T   T   T
  0.2469272243254868  0.7530727756745133  0.2514016614945531   T   T   T
  0.7530727756745133  0.2469272243254868  0.2514016614945531   T   T   T
  0.5000000000000000  0.0000000000000000  0.0000000000000000   T   T   T
  0.5000000000000000  0.5000000000000000  0.0000000000000000   T   T   T
 
  0.00000000E+00  0.00000000E+00  0.00000000E+00
  0.00000000E+00  0.00000000E+00  0.00000000E+00
  0.00000000E+00  0.00000000E+00  0.00000000E+00
  0.00000000E+00  0.00000000E+00  0.00000000E+00
  0.00000000E+00  0.00000000E+00  0.00000000E+00
  0.00000000E+00  0.00000000E+00  0.00000000E+00
  0.00000000E+00  0.00000000E+00  0.00000000E+00
  0.00000000E+00  0.00000000E+00  0.00000000E+00
  0.00000000E+00  0.00000000E+00  0.00000000E+00
  0.00000000E+00  0.00000000E+00  0.00000000E+00
  0.00000000E+00  0.00000000E+00  0.00000000E+00
  0.00000000E+00  0.00000000E+00  0.00000000E+00
  0.00000000E+00  0.00000000E+00  0.00000000E+00
  0.00000000E+00  0.00000000E+00  0.00000000E+00
  0.00000000E+00  0.00000000E+00  0.00000000E+00
  0.00000000E+00  0.00000000E+00  0.00000000E+00
  0.00000000E+00  0.00000000E+00  0.00000000E+00
  0.00000000E+00  0.00000000E+00  0.00000000E+00
  0.00000000E+00  0.00000000E+00  0.00000000E+00
  0.00000000E+00  0.00000000E+00  0.00000000E+00
  0.00000000E+00  0.00000000E+00  0.00000000E+00
  0.00000000E+00  0.00000000E+00  0.00000000E+00
  0.00000000E+00  0.00000000E+00  0.00000000E+00
  0.00000000E+00  0.00000000E+00  0.00000000E+00
  0.00000000E+00  0.00000000E+00  0.00000000E+00
  0.00000000E+00  0.00000000E+00  0.00000000E+00
  0.00000000E+00  0.00000000E+00  0.00000000E+00
  0.00000000E+00  0.00000000E+00  0.00000000E+00
  0.00000000E+00  0.00000000E+00  0.00000000E+00
  0.00000000E+00  0.00000000E+00  0.00000000E+00
  0.00000000E+00  0.00000000E+00  0.00000000E+00
  0.00000000E+00  0.00000000E+00  0.00000000E+00
  0.00000000E+00  0.00000000E+00  0.00000000E+00
  0.00000000E+00  0.00000000E+00  0.00000000E+00
  0.00000000E+00  0.00000000E+00  0.00000000E+00
  0.00000000E+00  0.00000000E+00  0.00000000E+00
  0.00000000E+00  0.00000000E+00  0.00000000E+00
  0.00000000E+00  0.00000000E+00  0.00000000E+00
  0.00000000E+00  0.00000000E+00  0.00000000E+00
  0.00000000E+00  0.00000000E+00  0.00000000E+00
  0.00000000E+00  0.00000000E+00  0.00000000E+00
  0.00000000E+00  0.00000000E+00  0.00000000E+00
  0.00000000E+00  0.00000000E+00  0.00000000E+00
  0.00000000E+00  0.00000000E+00  0.00000000E+00
  0.00000000E+00  0.00000000E+00  0.00000000E+00
  0.00000000E+00  0.00000000E+00  0.00000000E+00
  0.00000000E+00  0.00000000E+00  0.00000000E+00
