SnO2                                    
   1.00000000000000     
     9.4320271667224951    0.0000000000000000    0.0000000000000000
     0.0000000000000000    9.4320271667224951    0.0000000000000000
     0.0000000000000000    0.0000000000000000    6.3058068431916565
   O    Sn   H 
    32    16     1
Selective dynamics
Direct
  0.0970517499999985  0.9032401899999982  0.7453064099999978   T   T   T
  0.4063648200000003  0.6004169300000015  0.7518886000000009   T   T   T
  0.9027362300000021  0.5954199099999968  0.7494010200000005   T   T   T
  0.6535482999999971  0.1524799199999975  0.9983323100000021   T   T   T
  0.8488604699999982  0.3458977700000005  0.0012255700000026   T   T   T
  0.9044142500000021  0.0950866800000014  0.2430616099999980   T   T   T
  0.5947582399999973  0.4015473500000013  0.2511314200000001   T   T   T
  0.6524512200000032  0.1535646700000015  0.5008107000000024   T   T   T
  0.3457285799999994  0.8488308900000021  0.4980008400000031   T   T   T
  0.8494266599999989  0.3450501599999996  0.4980261500000012   T   T   T
  0.6009815000000032  0.4061863299999970  0.7516578400000000   T   T   T
  0.6533096200000017  0.6533637799999994  0.0012432400000009   T   T   T
  0.8416800999999978  0.8411061700000033  0.9971897599999977   T   T   T
  0.9034290999999968  0.5962330600000030  0.2508007200000009   T   T   T
  0.5965491899999975  0.9037330900000029  0.2505873200000011   T   T   T
  0.6537252800000033  0.6540556799999990  0.4982596299999997   T   T   T
  0.8468750099999980  0.8466771300000033  0.4991765899999976   T   T   T
  0.9036278499999995  0.0964314499999972  0.7456613800000014   T   T   T
  0.1538279999999972  0.6520999099999969  0.5007881399999974   T   T   T
  0.5956678200000027  0.9030067899999992  0.7496690099999981   T   T   T
  0.3544569700000011  0.3544057399999971  0.5168081500000028   T   T   T
  0.0955731499999999  0.9038962400000017  0.2433962200000011   T   T   T
  0.4016926600000019  0.5941655299999979  0.2509127699999993   T   T   T
  0.3462732599999967  0.8485253699999973  0.0012378600000034   T   T   T
  0.1573153499999975  0.1574305800000033  0.4938017699999975   T   T   T
  0.1468153599999980  0.1460670800000017  0.0143860800000013   T   T   T
  0.1523798200000002  0.6535916500000027  0.9983018100000010   T   T   T
  0.1030794200000003  0.4039473799999982  0.2504896800000012   T   T   T
  0.3983819600000018  0.0972348900000028  0.7533380599999973   T   T   T
  0.0973054899999966  0.3984983699999987  0.7535323600000012   T   T   T
  0.3482862400000002  0.3480035500000014  0.9964676600000004   T   T   T
  0.4039847399999985  0.1030413599999989  0.2508106599999991   T   T   T
  0.5050434699999968  0.5048129899999978  0.5029344200000025   T   T   T
  0.7477178999999978  0.7477754599999997  0.7471825599999988   T   T   T
  0.2708736499999986  0.2708641299999996  0.2639160800000013   T   T   T
  0.0002550399999990  0.9999441300000029  0.4953482700000009   T   T   T
  0.7492015400000014  0.7492495999999988  0.2509604400000001   T   T   T
  0.0006877100000011  0.4993660100000028  0.5006445300000024   T   T   T
  0.2514714900000001  0.2515682800000008  0.7505003300000013   T   T   T
  0.2515801300000007  0.7503129400000006  0.7495472700000008   T   T   T
  0.7507792099999975  0.2510947999999971  0.7495818399999976   T   T   T
  0.4995556399999970  0.0006042199999996  0.5006855199999976   T   T   T
  0.9998179800000031  0.5002695299999971  0.0009252400000008   T   T   T
  0.2498271299999999  0.7492266799999996  0.2493009900000018   T   T   T
  0.7496758799999981  0.2493852799999985  0.2493001400000026   T   T   T
  0.5001006800000027  0.0000526399999998  0.0009680300000028   T   T   T
  0.5032849999999982  0.5027443000000034  0.0000545500000015   T   T   T
  0.9872925399999986  0.9864234100000004  0.9888800700000004   T   T   T
  0.1222765799999976  0.1230700200000001  0.1635684000000026   T   T   T
 
  0.00000000E+00  0.00000000E+00  0.00000000E+00
  0.00000000E+00  0.00000000E+00  0.00000000E+00
  0.00000000E+00  0.00000000E+00  0.00000000E+00
  0.00000000E+00  0.00000000E+00  0.00000000E+00
  0.00000000E+00  0.00000000E+00  0.00000000E+00
  0.00000000E+00  0.00000000E+00  0.00000000E+00
  0.00000000E+00  0.00000000E+00  0.00000000E+00
  0.00000000E+00  0.00000000E+00  0.00000000E+00
  0.00000000E+00  0.00000000E+00  0.00000000E+00
  0.00000000E+00  0.00000000E+00  0.00000000E+00
  0.00000000E+00  0.00000000E+00  0.00000000E+00
  0.00000000E+00  0.00000000E+00  0.00000000E+00
  0.00000000E+00  0.00000000E+00  0.00000000E+00
  0.00000000E+00  0.00000000E+00  0.00000000E+00
  0.00000000E+00  0.00000000E+00  0.00000000E+00
  0.00000000E+00  0.00000000E+00  0.00000000E+00
  0.00000000E+00  0.00000000E+00  0.00000000E+00
  0.00000000E+00  0.00000000E+00  0.00000000E+00
  0.00000000E+00  0.00000000E+00  0.00000000E+00
  0.00000000E+00  0.00000000E+00  0.00000000E+00
  0.00000000E+00  0.00000000E+00  0.00000000E+00
  0.00000000E+00  0.00000000E+00  0.00000000E+00
  0.00000000E+00  0.00000000E+00  0.00000000E+00
  0.00000000E+00  0.00000000E+00  0.00000000E+00
  0.00000000E+00  0.00000000E+00  0.00000000E+00
  0.00000000E+00  0.00000000E+00  0.00000000E+00
  0.00000000E+00  0.00000000E+00  0.00000000E+00
  0.00000000E+00  0.00000000E+00  0.00000000E+00
  0.00000000E+00  0.00000000E+00  0.00000000E+00
  0.00000000E+00  0.00000000E+00  0.00000000E+00
  0.00000000E+00  0.00000000E+00  0.00000000E+00
  0.00000000E+00  0.00000000E+00  0.00000000E+00
  0.00000000E+00  0.00000000E+00  0.00000000E+00
  0.00000000E+00  0.00000000E+00  0.00000000E+00
  0.00000000E+00  0.00000000E+00  0.00000000E+00
  0.00000000E+00  0.00000000E+00  0.00000000E+00
  0.00000000E+00  0.00000000E+00  0.00000000E+00
  0.00000000E+00  0.00000000E+00  0.00000000E+00
  0.00000000E+00  0.00000000E+00  0.00000000E+00
  0.00000000E+00  0.00000000E+00  0.00000000E+00
  0.00000000E+00  0.00000000E+00  0.00000000E+00
  0.00000000E+00  0.00000000E+00  0.00000000E+00
  0.00000000E+00  0.00000000E+00  0.00000000E+00
  0.00000000E+00  0.00000000E+00  0.00000000E+00
  0.00000000E+00  0.00000000E+00  0.00000000E+00
  0.00000000E+00  0.00000000E+00  0.00000000E+00
  0.00000000E+00  0.00000000E+00  0.00000000E+00
  0.00000000E+00  0.00000000E+00  0.00000000E+00
  0.00000000E+00  0.00000000E+00  0.00000000E+00
