SnO2                                    
   1.00000000000000     
     9.4320271667224951    0.0000000000000000    0.0000000000000000
     0.0000000000000000    9.4320271667224951    0.0000000000000000
     0.0000000000000000    0.0000000000000000    6.3058068431916565
   O    Sn   H 
    32    16     1
Selective dynamics
Direct
  0.0967859552144051  0.9015621380646326  0.7452243089979081   T   T   T
  0.4066584556566860  0.6019072153000549  0.7513076060097927   T   T   T
  0.9015794032206258  0.5966924418541617  0.7495630639068090   T   T   T
  0.6533112334483161  0.1524305061045916  0.9979480341027087   T   T   T
  0.8487457657413928  0.3466115550267272  0.0012198186148179   T   T   T
  0.9009980046448551  0.0939835067551906  0.2436617221604384   T   T   T
  0.5960303741676651  0.4018351610145821  0.2513272678297023   T   T   T
  0.6521358170472918  0.1535365939516187  0.5009401170103036   T   T   T
  0.3462355802627045  0.8489094881238384  0.4978312105709999   T   T   T
  0.8493993290721016  0.3457878804267945  0.4978427823474610   T   T   T
  0.6023356304301921  0.4066309499176825  0.7512345823724152   T   T   T
  0.6529253472423684  0.6530251786957242  0.0014280589812836   T   T   T
  0.8418685304413074  0.8413406160594413  0.9971001118095079   T   T   T
  0.9024801850390310  0.5974865385478483  0.2505537885415847   T   T   T
  0.5977351491440147  0.9024961969441991  0.2505065532166532   T   T   T
  0.6534761958365856  0.6536554231413795  0.4979731344090899   T   T   T
  0.8472668344932892  0.8469056949863477  0.4995167085856009   T   T   T
  0.9017439440129842  0.0963314846284334  0.7452617491573531   T   T   T
  0.1536791215208383  0.6520072896980651  0.5009451577773973   T   T   T
  0.5969531511212449  0.9015353051682962  0.7496440726614516   T   T   T
  0.3556322853957314  0.3554191792480099  0.5189571714055083   T   T   T
  0.0945329038993420  0.9009448796407378  0.2436902317437726   T   T   T
  0.4018764274874093  0.5956148747795428  0.2512599025575847   T   T   T
  0.3469501648181134  0.8483647354430972  0.0012607972651277   T   T   T
  0.1559394368537829  0.1559232625309331  0.4920908317178495   T   T   T
  0.1419343831068057  0.1420959491023843  0.0134968929158629   T   T   T
  0.1524766830052631  0.6532869217958006  0.9979646403069615   T   T   T
  0.1023845571076628  0.4051410659185233  0.2500795229663831   T   T   T
  0.3998879978869028  0.0960490434434044  0.7529067546380993   T   T   T
  0.0964142877705910  0.3999789935163245  0.7529485785757669   T   T   T
  0.3502984552288917  0.3499863176869688  0.9952331779634918   T   T   T
  0.4050489250129897  0.1020719806197051  0.2501112111378566   T   T   T
  0.5051491516042156  0.5049849452380547  0.5028552509066851   T   T   T
  0.7478978078029366  0.7477640105990139  0.7471284725259657   T   T   T
  0.2723928268178007  0.2722792722625632  0.2645708619751763   T   T   T
  0.0003687531362111  0.0000872306994364  0.4950719853696464   T   T   T
  0.7495512958395160  0.7494463717217935  0.2510717257107919   T   T   T
  0.0003540211914656  0.5000528477884458  0.5005517645413228   T   T   T
  0.2502289688707253  0.2500894462113474  0.7513082528047498   T   T   T
  0.2514305023947905  0.7506415363720823  0.7494035403683632   T   T   T
  0.7509307545852290  0.2511391804020606  0.7494019751253488   T   T   T
  0.5001903896122762  0.0001401147075683  0.5005815607229908   T   T   T
  0.9996739101023148  0.5007662100610178  0.0006571644871936   T   T   T
  0.2494947559200849  0.7494651273759707  0.2493259694450005   T   T   T
  0.7497690540629018  0.2492053843467482  0.2493056999766062   T   T   T
  0.5008336908397415  0.9995371168215632  0.0006892176836671   T   T   T
  0.5032756707181272  0.5030189818749163  0.9998621205399044   T   T   T
  0.9872841981087813  0.9868987906989748  0.9892250081961704   T   T   T
  0.1254537130614922  0.1249350846834265  0.1679598873628943   T   T   T
 
  0.00000000E+00  0.00000000E+00  0.00000000E+00
  0.00000000E+00  0.00000000E+00  0.00000000E+00
  0.00000000E+00  0.00000000E+00  0.00000000E+00
  0.00000000E+00  0.00000000E+00  0.00000000E+00
  0.00000000E+00  0.00000000E+00  0.00000000E+00
  0.00000000E+00  0.00000000E+00  0.00000000E+00
  0.00000000E+00  0.00000000E+00  0.00000000E+00
  0.00000000E+00  0.00000000E+00  0.00000000E+00
  0.00000000E+00  0.00000000E+00  0.00000000E+00
  0.00000000E+00  0.00000000E+00  0.00000000E+00
  0.00000000E+00  0.00000000E+00  0.00000000E+00
  0.00000000E+00  0.00000000E+00  0.00000000E+00
  0.00000000E+00  0.00000000E+00  0.00000000E+00
  0.00000000E+00  0.00000000E+00  0.00000000E+00
  0.00000000E+00  0.00000000E+00  0.00000000E+00
  0.00000000E+00  0.00000000E+00  0.00000000E+00
  0.00000000E+00  0.00000000E+00  0.00000000E+00
  0.00000000E+00  0.00000000E+00  0.00000000E+00
  0.00000000E+00  0.00000000E+00  0.00000000E+00
  0.00000000E+00  0.00000000E+00  0.00000000E+00
  0.00000000E+00  0.00000000E+00  0.00000000E+00
  0.00000000E+00  0.00000000E+00  0.00000000E+00
  0.00000000E+00  0.00000000E+00  0.00000000E+00
  0.00000000E+00  0.00000000E+00  0.00000000E+00
  0.00000000E+00  0.00000000E+00  0.00000000E+00
  0.00000000E+00  0.00000000E+00  0.00000000E+00
  0.00000000E+00  0.00000000E+00  0.00000000E+00
  0.00000000E+00  0.00000000E+00  0.00000000E+00
  0.00000000E+00  0.00000000E+00  0.00000000E+00
  0.00000000E+00  0.00000000E+00  0.00000000E+00
  0.00000000E+00  0.00000000E+00  0.00000000E+00
  0.00000000E+00  0.00000000E+00  0.00000000E+00
  0.00000000E+00  0.00000000E+00  0.00000000E+00
  0.00000000E+00  0.00000000E+00  0.00000000E+00
  0.00000000E+00  0.00000000E+00  0.00000000E+00
  0.00000000E+00  0.00000000E+00  0.00000000E+00
  0.00000000E+00  0.00000000E+00  0.00000000E+00
  0.00000000E+00  0.00000000E+00  0.00000000E+00
  0.00000000E+00  0.00000000E+00  0.00000000E+00
  0.00000000E+00  0.00000000E+00  0.00000000E+00
  0.00000000E+00  0.00000000E+00  0.00000000E+00
  0.00000000E+00  0.00000000E+00  0.00000000E+00
  0.00000000E+00  0.00000000E+00  0.00000000E+00
  0.00000000E+00  0.00000000E+00  0.00000000E+00
  0.00000000E+00  0.00000000E+00  0.00000000E+00
  0.00000000E+00  0.00000000E+00  0.00000000E+00
  0.00000000E+00  0.00000000E+00  0.00000000E+00
  0.00000000E+00  0.00000000E+00  0.00000000E+00
  0.00000000E+00  0.00000000E+00  0.00000000E+00
