SnO2                                    
   1.00000000000000     
     9.4320271667224951    0.0000000000000000    0.0000000000000000
     0.0000000000000000    9.4320271667224951    0.0000000000000000
     0.0000000000000000    0.0000000000000000    6.3058068431916565
   O    Sn
    33    16
Selective dynamics
Direct
  0.0820007882817672  0.8839576219851601  0.7385151267652236   T   T   T
  0.4046834565639986  0.5974483243765963  0.7507349003786801   T   T   T
  0.9011430510732586  0.5981810218513542  0.7485831110438375   T   T   T
  0.6569877337244406  0.1526741688780358  0.0000000000000000   T   T   T
  0.8470218223579400  0.3480791306625410  0.0000000000000000   T   T   T
  0.9097307534001037  0.0965850112770346  0.2449849989542725   T   T   T
  0.5988569489267342  0.4018189781486386  0.2514168889561558   T   T   T
  0.6643464157509578  0.1470672030162257  0.5000000000000000   T   T   T
  0.3424072947493565  0.8503994242564916  0.5000000000000000   T   T   T
  0.8488317094488853  0.3455623227256926  0.5000000000000000   T   T   T
  0.5988569489267414  0.4018189781486386  0.7485831110438375   T   T   T
  0.6529781776420529  0.6519208693374650  0.0000000000000000   T   T   T
  0.8430122662755736  0.8473258311219728  0.0000000000000000   T   T   T
  0.9011430510732586  0.5981810218513613  0.2514168889561558   T   T   T
  0.5902692465998963  0.9034149887229567  0.2449849989542725   T   T   T
  0.6511682905511076  0.6544376772743149  0.5000000000000000   T   T   T
  0.8356535842490422  0.8529327969837751  0.5000000000000000   T   T   T
  0.9097307534001037  0.0965850112770417  0.7550150010457284   T   T   T
  0.1566045154218771  0.6428486673246641  0.5000000000000000   T   T   T
  0.5902692465998963  0.9034149887229638  0.7550150010457355   T   T   T
  0.3433954845781235  0.3571513326753369  0.5000000000000000   T   T   T
  0.0820007882817672  0.8839576219851601  0.2614848732347705   T   T   T
  0.4046834565639986  0.5974483243765963  0.2492650996213199   T   T   T
  0.3529734548160592  0.8342049272319458  0.0000000000000000   T   T   T
  0.1575927052506440  0.1496005757435014  0.5000000000000000   T   T   T
  0.1470265451839400  0.1657950727680463  0.0000000000000000   T   T   T
  0.1525898547586826  0.6507744602098936  0.0000000000000000   T   T   T
  0.0953165434360017  0.4025516756234030  0.2492650996213270   T   T   T
  0.4179992117182404  0.1160423780148542  0.7385151267652236   T   T   T
  0.0953165434360017  0.4025516756234030  0.7507349003786730   T   T   T
  0.3474101452413102  0.3492255397901068  0.0000000000000000   T   T   T
  0.4179992117182404  0.1160423780148471  0.2614848732347705   T   T   T
  0.2500000000000000  0.0000000000000000  0.0000000000000000   T   T   T
  0.5024864870973391  0.5009855106363232  0.5000000000000000   T   T   T
  0.7466875436795039  0.7520338172127955  0.7504831094104485   T   T   T
  0.2530833913669402  0.2551886581887616  0.2543924850099452   T   T   T
  0.9968659639203552 -0.0011978272575994  0.5000000000000000   T   T   T
  0.7466875436795039  0.7520338172127955  0.2495168905895513   T   T   T
 -0.0024864870973397  0.4990144893636698  0.5000000000000000   T   T   T
  0.2530833913669402  0.2551886581887687  0.7456075149900481   T   T   T
  0.2469166086330604  0.7448113418112321  0.7456075149900481   T   T   T
  0.7533124563205033  0.2479661827872036  0.7504831094104485   T   T   T
  0.5031340360796377  1.0011978272575990  0.5000000000000000   T   T   T
 -0.0026481724456155  0.5010778334199969  0.0000000000000000   T   T   T
  0.2469166086330604  0.7448113418112321  0.2543924850099452   T   T   T
  0.7533124563204961  0.2479661827872036  0.2495168905895513   T   T   T
  0.4936273206119591  0.0116416949798884  0.0000000000000000   T   T   T
  0.5026481724456160  0.4989221665800032  0.0000000000000000   T   T   T
  0.0063726793880420  0.9883583050201038  0.0000000000000000   T   T   T
 
  0.00000000E+00  0.00000000E+00  0.00000000E+00
  0.00000000E+00  0.00000000E+00  0.00000000E+00
  0.00000000E+00  0.00000000E+00  0.00000000E+00
  0.00000000E+00  0.00000000E+00  0.00000000E+00
  0.00000000E+00  0.00000000E+00  0.00000000E+00
  0.00000000E+00  0.00000000E+00  0.00000000E+00
  0.00000000E+00  0.00000000E+00  0.00000000E+00
  0.00000000E+00  0.00000000E+00  0.00000000E+00
  0.00000000E+00  0.00000000E+00  0.00000000E+00
  0.00000000E+00  0.00000000E+00  0.00000000E+00
  0.00000000E+00  0.00000000E+00  0.00000000E+00
  0.00000000E+00  0.00000000E+00  0.00000000E+00
  0.00000000E+00  0.00000000E+00  0.00000000E+00
  0.00000000E+00  0.00000000E+00  0.00000000E+00
  0.00000000E+00  0.00000000E+00  0.00000000E+00
  0.00000000E+00  0.00000000E+00  0.00000000E+00
  0.00000000E+00  0.00000000E+00  0.00000000E+00
  0.00000000E+00  0.00000000E+00  0.00000000E+00
  0.00000000E+00  0.00000000E+00  0.00000000E+00
  0.00000000E+00  0.00000000E+00  0.00000000E+00
  0.00000000E+00  0.00000000E+00  0.00000000E+00
  0.00000000E+00  0.00000000E+00  0.00000000E+00
  0.00000000E+00  0.00000000E+00  0.00000000E+00
  0.00000000E+00  0.00000000E+00  0.00000000E+00
  0.00000000E+00  0.00000000E+00  0.00000000E+00
  0.00000000E+00  0.00000000E+00  0.00000000E+00
  0.00000000E+00  0.00000000E+00  0.00000000E+00
  0.00000000E+00  0.00000000E+00  0.00000000E+00
  0.00000000E+00  0.00000000E+00  0.00000000E+00
  0.00000000E+00  0.00000000E+00  0.00000000E+00
  0.00000000E+00  0.00000000E+00  0.00000000E+00
  0.00000000E+00  0.00000000E+00  0.00000000E+00
  0.00000000E+00  0.00000000E+00  0.00000000E+00
  0.00000000E+00  0.00000000E+00  0.00000000E+00
  0.00000000E+00  0.00000000E+00  0.00000000E+00
  0.00000000E+00  0.00000000E+00  0.00000000E+00
  0.00000000E+00  0.00000000E+00  0.00000000E+00
  0.00000000E+00  0.00000000E+00  0.00000000E+00
  0.00000000E+00  0.00000000E+00  0.00000000E+00
  0.00000000E+00  0.00000000E+00  0.00000000E+00
  0.00000000E+00  0.00000000E+00  0.00000000E+00
  0.00000000E+00  0.00000000E+00  0.00000000E+00
  0.00000000E+00  0.00000000E+00  0.00000000E+00
  0.00000000E+00  0.00000000E+00  0.00000000E+00
  0.00000000E+00  0.00000000E+00  0.00000000E+00
  0.00000000E+00  0.00000000E+00  0.00000000E+00
  0.00000000E+00  0.00000000E+00  0.00000000E+00
  0.00000000E+00  0.00000000E+00  0.00000000E+00
  0.00000000E+00  0.00000000E+00  0.00000000E+00
