SnO2                                    
   1.00000000000000     
     9.4320271667224951    0.0000000000000000    0.0000000000000000
     0.0000000000000000    9.4320271667224951    0.0000000000000000
     0.0000000000000000    0.0000000000000000    6.3058068431916565
   O    Sn   F 
    32    16     1
Selective dynamics
Direct
  0.0889607392726031  0.8927460542669809  0.7422716881208682   T   T   T
  0.4003106953690896  0.5878372922885854  0.7435021230329708   T   T   T
  0.9011117745377789  0.5983091097127381  0.7513533689243261   T   T   T
  0.6517614476596494  0.1510195561236144  0.0000000000000000   T   T   T
  0.8455781656381537  0.3487879548606005  0.0000000000000000   T   T   T
  0.9032434737783557  0.0946047087074813  0.2495896074768690   T   T   T
  0.5988882254622211  0.4016908902872616  0.2486466310756736   T   T   T
  0.6578451359566296  0.1522557071155348  0.5000000000000000   T   T   T
  0.3482655064437298  0.8491325980879997  0.5000000000000000   T   T   T
  0.8474052837541503  0.3473517688760549  0.5000000000000000   T   T   T
  0.5988882254622211  0.4016908902872616  0.7513533689243261   T   T   T
  0.6544218343618463  0.6512120451393993  0.0000000000000000   T   T   T
  0.8482385523403506  0.8489804438763854  0.0000000000000000   T   T   T
  0.9011117745377789  0.5983091097127381  0.2486466310756736   T   T   T
  0.5967565262216443  0.9053952912925185  0.2495896074768690   T   T   T
  0.6525947162458497  0.6526482311239453  0.5000000000000000   T   T   T
  0.8421548640433704  0.8477442928844651  0.5000000000000000   T   T   T
  0.9032434737783557  0.0946047087074813  0.7504103925231311   T   T   T
  0.1544624801971931  0.6544255520194956  0.5000000000000000   T   T   T
  0.5967565262216443  0.9053952912925185  0.7504103925231311   T   T   T
  0.3455375198028068  0.3455744479805045  0.5000000000000000   T   T   T
  0.0889607392726031  0.8927460542669809  0.2577283118791320   T   T   T
  0.4003106953690896  0.5878372922885854  0.2564978769670291   T   T   T
  0.3834115335351704  0.8018127354723537  0.0000000000000000   T   T   T
  0.1517344935562702  0.1508674019120003  0.5000000000000000   T   T   T
  0.1165884664648296  0.1981872645276463  0.0000000000000000   T   T   T
  0.1515709719085770  0.6541719406236404  0.0000000000000000   T   T   T
  0.0996893046309104  0.4121627077114144  0.2564978769670291   T   T   T
  0.4110392607273968  0.1072539457330192  0.7422716881208682   T   T   T
  0.0996893046309104  0.4121627077114144  0.7435021230329708   T   T   T
  0.3484290280914230  0.3458280593763596  0.0000000000000000   T   T   T
  0.4110392607273968  0.1072539457330192  0.2577283118791320   T   T   T
  0.5022882223131205  0.4952204906602954  0.5000000000000000   T   T   T
  0.7493497108677369  0.7522673034415520  0.7517640460553006   T   T   T
  0.2471347045176692  0.2520234934662136  0.2492451057708711   T   T   T
 -0.0031338473970987 -0.0022740955394099  0.5000000000000000   T   T   T
  0.7493497108677369  0.7522673034415520  0.2482359539446996   T   T   T
 -0.0022882223131204  0.5047795093397045  0.5000000000000000   T   T   T
  0.2471347045176692  0.2520234934662136  0.7507548942291289   T   T   T
  0.2528652954823308  0.7479765065337863  0.7507548942291289   T   T   T
  0.7506502891322631  0.2477326965584477  0.7517640460553006   T   T   T
  0.5031338473970987  0.0022740955394099  0.5000000000000000   T   T   T
  0.0006759185332092  0.4988386842117747  0.0000000000000000   T   T   T
  0.2528652954823308  0.7479765065337863  0.2492451057708711   T   T   T
  0.7506502891322631  0.2477326965584477  0.2482359539446996   T   T   T
  0.4877972940009722 -0.0018958266333570  0.0000000000000000   T   T   T
  0.4993240814667907  0.5011613157882252  0.0000000000000000   T   T   T
  0.0122027059990279  0.0018958266333570  0.0000000000000000   T   T   T
  0.2500000000000000  0.0000000000000000  0.0000000000000000   T   T   T
 
  0.00000000E+00  0.00000000E+00  0.00000000E+00
  0.00000000E+00  0.00000000E+00  0.00000000E+00
  0.00000000E+00  0.00000000E+00  0.00000000E+00
  0.00000000E+00  0.00000000E+00  0.00000000E+00
  0.00000000E+00  0.00000000E+00  0.00000000E+00
  0.00000000E+00  0.00000000E+00  0.00000000E+00
  0.00000000E+00  0.00000000E+00  0.00000000E+00
  0.00000000E+00  0.00000000E+00  0.00000000E+00
  0.00000000E+00  0.00000000E+00  0.00000000E+00
  0.00000000E+00  0.00000000E+00  0.00000000E+00
  0.00000000E+00  0.00000000E+00  0.00000000E+00
  0.00000000E+00  0.00000000E+00  0.00000000E+00
  0.00000000E+00  0.00000000E+00  0.00000000E+00
  0.00000000E+00  0.00000000E+00  0.00000000E+00
  0.00000000E+00  0.00000000E+00  0.00000000E+00
  0.00000000E+00  0.00000000E+00  0.00000000E+00
  0.00000000E+00  0.00000000E+00  0.00000000E+00
  0.00000000E+00  0.00000000E+00  0.00000000E+00
  0.00000000E+00  0.00000000E+00  0.00000000E+00
  0.00000000E+00  0.00000000E+00  0.00000000E+00
  0.00000000E+00  0.00000000E+00  0.00000000E+00
  0.00000000E+00  0.00000000E+00  0.00000000E+00
  0.00000000E+00  0.00000000E+00  0.00000000E+00
  0.00000000E+00  0.00000000E+00  0.00000000E+00
  0.00000000E+00  0.00000000E+00  0.00000000E+00
  0.00000000E+00  0.00000000E+00  0.00000000E+00
  0.00000000E+00  0.00000000E+00  0.00000000E+00
  0.00000000E+00  0.00000000E+00  0.00000000E+00
  0.00000000E+00  0.00000000E+00  0.00000000E+00
  0.00000000E+00  0.00000000E+00  0.00000000E+00
  0.00000000E+00  0.00000000E+00  0.00000000E+00
  0.00000000E+00  0.00000000E+00  0.00000000E+00
  0.00000000E+00  0.00000000E+00  0.00000000E+00
  0.00000000E+00  0.00000000E+00  0.00000000E+00
  0.00000000E+00  0.00000000E+00  0.00000000E+00
  0.00000000E+00  0.00000000E+00  0.00000000E+00
  0.00000000E+00  0.00000000E+00  0.00000000E+00
  0.00000000E+00  0.00000000E+00  0.00000000E+00
  0.00000000E+00  0.00000000E+00  0.00000000E+00
  0.00000000E+00  0.00000000E+00  0.00000000E+00
  0.00000000E+00  0.00000000E+00  0.00000000E+00
  0.00000000E+00  0.00000000E+00  0.00000000E+00
  0.00000000E+00  0.00000000E+00  0.00000000E+00
  0.00000000E+00  0.00000000E+00  0.00000000E+00
  0.00000000E+00  0.00000000E+00  0.00000000E+00
  0.00000000E+00  0.00000000E+00  0.00000000E+00
  0.00000000E+00  0.00000000E+00  0.00000000E+00
  0.00000000E+00  0.00000000E+00  0.00000000E+00
  0.00000000E+00  0.00000000E+00  0.00000000E+00
