SnO2                                    
   1.00000000000000     
     9.4320271667224951    0.0000000000000000    0.0000000000000000
     0.0000000000000000    9.4320271667224951    0.0000000000000000
     0.0000000000000000    0.0000000000000000    6.3058068431916565
   O    Sn
    32    15
Selective dynamics
Direct
  0.1024160162279187  0.8975839837720819  0.7268077886890459   T   T   T
  0.4026663154222280  0.5973336845777724  0.7495008701680367   T   T   T
  0.9033090605719172  0.5965309162866675  0.7501522338105580   T   T   T
  0.6507061653613273  0.1546430371720088  0.0000000000000000   T   T   T
  0.8453569628279913  0.3492938346386724  0.0000000000000000   T   T   T
  0.8975839837720819  0.1024160162279187  0.2731922113109542   T   T   T
  0.5973336845777724  0.4026663154222280  0.2504991298319632   T   T   T
  0.6451317079191872  0.1577654585456566  0.5000000000000000   T   T   T
  0.3548682920808129  0.8422345414543435  0.5000000000000000   T   T   T
  0.8422345414543435  0.3548682920808129  0.5000000000000000   T   T   T
  0.5973336845777724  0.4026663154222280  0.7495008701680367   T   T   T
  0.6499476352859189  0.6499476352859189  0.0000000000000000   T   T   T
  0.8437839108039792  0.8437839108039792  0.0000000000000000   T   T   T
  0.9033090605719172  0.5965309162866675  0.2498477661894423   T   T   T
  0.5965309162866675  0.9033090605719172  0.2498477661894423   T   T   T
  0.6533454211951744  0.6533454211951744  0.5000000000000000   T   T   T
  0.8455887977503810  0.8455887977503810  0.5000000000000000   T   T   T
  0.8975839837720819  0.1024160162279187  0.7268077886890459   T   T   T
  0.1577654585456566  0.6451317079191872  0.5000000000000000   T   T   T
  0.5965309162866675  0.9033090605719172  0.7501522338105580   T   T   T
  0.3466545788048254  0.3466545788048254  0.5000000000000000   T   T   T
  0.1024160162279187  0.8975839837720819  0.2731922113109542   T   T   T
  0.4026663154222280  0.5973336845777724  0.2504991298319632   T   T   T
  0.3492938346386724  0.8453569628279913  0.0000000000000000   T   T   T
  0.1544112022496185  0.1544112022496185  0.5000000000000000   T   T   T
  0.1562160891960212  0.1562160891960212  0.0000000000000000   T   T   T
  0.1546430371720088  0.6507061653613273  0.0000000000000000   T   T   T
  0.0966909394280833  0.4034690837133320  0.2498477661894423   T   T   T
  0.4034690837133320  0.0966909394280833  0.7501522338105580   T   T   T
  0.0966909394280833  0.4034690837133320  0.7501522338105580   T   T   T
  0.3500523647140817  0.3500523647140817  0.0000000000000000   T   T   T
  0.4034690837133320  0.0966909394280833  0.2498477661894423   T   T   T
  0.5000000000000000  0.5000000000000000  0.5000000000000000   T   T   T
  0.7515993611454449  0.7515993611454449  0.7527557379120831   T   T   T
  0.2484006388545553  0.2484006388545553  0.2472442620879165   T   T   T
  0.0000000000000000  0.0000000000000000  0.5000000000000000   T   T   T
  0.7515993611454449  0.7515993611454449  0.2472442620879165   T   T   T
  0.0000000000000000  0.5000000000000000  0.5000000000000000   T   T   T
  0.2484006388545553  0.2484006388545553  0.7527557379120831   T   T   T
  0.2493961083855167  0.7506038916144836  0.7498391358496723   T   T   T
  0.7506038916144836  0.2493961083855167  0.7498391358496723   T   T   T
  0.5000000000000000  0.0000000000000000  0.5000000000000000   T   T   T
  0.0000000000000000  0.5000000000000000  0.0000000000000000   T   T   T
  0.2493961083855168  0.7506038916144836  0.2501608641503278   T   T   T
  0.7506038916144836  0.2493961083855167  0.2501608641503278   T   T   T
  0.5000000000000000  0.0000000000000000  0.0000000000000000   T   T   T
  0.5000000000000000  0.5000000000000000  0.0000000000000000   T   T   T
 
  0.00000000E+00  0.00000000E+00  0.00000000E+00
  0.00000000E+00  0.00000000E+00  0.00000000E+00
  0.00000000E+00  0.00000000E+00  0.00000000E+00
  0.00000000E+00  0.00000000E+00  0.00000000E+00
  0.00000000E+00  0.00000000E+00  0.00000000E+00
  0.00000000E+00  0.00000000E+00  0.00000000E+00
  0.00000000E+00  0.00000000E+00  0.00000000E+00
  0.00000000E+00  0.00000000E+00  0.00000000E+00
  0.00000000E+00  0.00000000E+00  0.00000000E+00
  0.00000000E+00  0.00000000E+00  0.00000000E+00
  0.00000000E+00  0.00000000E+00  0.00000000E+00
  0.00000000E+00  0.00000000E+00  0.00000000E+00
  0.00000000E+00  0.00000000E+00  0.00000000E+00
  0.00000000E+00  0.00000000E+00  0.00000000E+00
  0.00000000E+00  0.00000000E+00  0.00000000E+00
  0.00000000E+00  0.00000000E+00  0.00000000E+00
  0.00000000E+00  0.00000000E+00  0.00000000E+00
  0.00000000E+00  0.00000000E+00  0.00000000E+00
  0.00000000E+00  0.00000000E+00  0.00000000E+00
  0.00000000E+00  0.00000000E+00  0.00000000E+00
  0.00000000E+00  0.00000000E+00  0.00000000E+00
  0.00000000E+00  0.00000000E+00  0.00000000E+00
  0.00000000E+00  0.00000000E+00  0.00000000E+00
  0.00000000E+00  0.00000000E+00  0.00000000E+00
  0.00000000E+00  0.00000000E+00  0.00000000E+00
  0.00000000E+00  0.00000000E+00  0.00000000E+00
  0.00000000E+00  0.00000000E+00  0.00000000E+00
  0.00000000E+00  0.00000000E+00  0.00000000E+00
  0.00000000E+00  0.00000000E+00  0.00000000E+00
  0.00000000E+00  0.00000000E+00  0.00000000E+00
  0.00000000E+00  0.00000000E+00  0.00000000E+00
  0.00000000E+00  0.00000000E+00  0.00000000E+00
  0.00000000E+00  0.00000000E+00  0.00000000E+00
  0.00000000E+00  0.00000000E+00  0.00000000E+00
  0.00000000E+00  0.00000000E+00  0.00000000E+00
  0.00000000E+00  0.00000000E+00  0.00000000E+00
  0.00000000E+00  0.00000000E+00  0.00000000E+00
  0.00000000E+00  0.00000000E+00  0.00000000E+00
  0.00000000E+00  0.00000000E+00  0.00000000E+00
  0.00000000E+00  0.00000000E+00  0.00000000E+00
  0.00000000E+00  0.00000000E+00  0.00000000E+00
  0.00000000E+00  0.00000000E+00  0.00000000E+00
  0.00000000E+00  0.00000000E+00  0.00000000E+00
  0.00000000E+00  0.00000000E+00  0.00000000E+00
  0.00000000E+00  0.00000000E+00  0.00000000E+00
  0.00000000E+00  0.00000000E+00  0.00000000E+00
  0.00000000E+00  0.00000000E+00  0.00000000E+00
