SnO2                                    
   1.00000000000000     
     9.4320271667224951    0.0000000000000000    0.0000000000000000
     0.0000000000000000    9.4320271667224951    0.0000000000000000
     0.0000000000000000    0.0000000000000000    6.3058068431916565
   O    Sn
    32    15
Selective dynamics
Direct
  0.1025672454619418  0.8974327545380583  0.7257325884270723   T   T   T
  0.4024398369043443  0.5975601630956554  0.7493759248137910   T   T   T
  0.9033382393122007  0.5961434670693210  0.7500833848974826   T   T   T
  0.6503951605044265  0.1549189763105697  0.0000000000000000   T   T   T
  0.8450810236894303  0.3496048394955738  0.0000000000000000   T   T   T
  0.8974327545380583  0.1025672454619418  0.2742674115729271   T   T   T
  0.5975601630956554  0.4024398369043443  0.2506240751862094   T   T   T
  0.6439394331476225  0.1583835428981842  0.5000000000000000   T   T   T
  0.3560605668523776  0.8416164571018154  0.5000000000000000   T   T   T
  0.8416164571018154  0.3560605668523776  0.5000000000000000   T   T   T
  0.5975601630956554  0.4024398369043443  0.7493759248137910   T   T   T
  0.6492454499342789  0.6492454499342789  0.0000000000000000   T   T   T
  0.8426482336864899  0.8426482336864899  0.0000000000000000   T   T   T
  0.9033382393122007  0.5961434670693210  0.2499166151025174   T   T   T
  0.5961434670693210  0.9033382393122007  0.2499166151025174   T   T   T
  0.6532389430181829  0.6532389430181829  0.5000000000000000   T   T   T
  0.8448121463998678  0.8448121463998678  0.5000000000000000   T   T   T
  0.8974327545380583  0.1025672454619418  0.7257325884270722   T   T   T
  0.1583835428981842  0.6439394331476225  0.5000000000000000   T   T   T
  0.5961434670693210  0.9033382393122007  0.7500833848974826   T   T   T
  0.3467610569818176  0.3467610569818176  0.5000000000000000   T   T   T
  0.1025672454619418  0.8974327545380583  0.2742674115729271   T   T   T
  0.4024398369043443  0.5975601630956554  0.2506240751862094   T   T   T
  0.3496048394955738  0.8450810236894303  0.0000000000000000   T   T   T
  0.1551878536001323  0.1551878536001323  0.5000000000000000   T   T   T
  0.1573517663135099  0.1573517663135099  0.0000000000000000   T   T   T
  0.1549189763105697  0.6503951605044265  0.0000000000000000   T   T   T
  0.0966617606877993  0.4038565329306786  0.2499166151025174   T   T   T
  0.4038565329306786  0.0966617606877993  0.7500833848974826   T   T   T
  0.0966617606877993  0.4038565329306786  0.7500833848974826   T   T   T
  0.3507545500657209  0.3507545500657209  0.0000000000000000   T   T   T
  0.4038565329306786  0.0966617606877993  0.2499166151025174   T   T   T
  0.5000000000000000  0.5000000000000000  0.5000000000000000   T   T   T
  0.7522303038671236  0.7522303038671236  0.7534530691249098   T   T   T
  0.2477696961328759  0.2477696961328760  0.2465469308750899   T   T   T
  0.0000000000000000  0.0000000000000000  0.5000000000000000   T   T   T
  0.7522303038671236  0.7522303038671236  0.2465469308750899   T   T   T
  0.0000000000000000  0.5000000000000000  0.5000000000000000   T   T   T
  0.2477696961328759  0.2477696961328759  0.7534530691249098   T   T   T
  0.2483435159167959  0.7516564840832040  0.7492660860948569   T   T   T
  0.7516564840832040  0.2483435159167959  0.7492660860948569   T   T   T
  0.5000000000000000  0.0000000000000000  0.5000000000000000   T   T   T
  0.0000000000000000  0.5000000000000000  0.0000000000000000   T   T   T
  0.2483435159167959  0.7516564840832040  0.2507339139051431   T   T   T
  0.7516564840832040  0.2483435159167959  0.2507339139051431   T   T   T
  0.5000000000000000  0.0000000000000000  0.0000000000000000   T   T   T
  0.5000000000000000  0.5000000000000000  0.0000000000000000   T   T   T
 
  0.00000000E+00  0.00000000E+00  0.00000000E+00
  0.00000000E+00  0.00000000E+00  0.00000000E+00
  0.00000000E+00  0.00000000E+00  0.00000000E+00
  0.00000000E+00  0.00000000E+00  0.00000000E+00
  0.00000000E+00  0.00000000E+00  0.00000000E+00
  0.00000000E+00  0.00000000E+00  0.00000000E+00
  0.00000000E+00  0.00000000E+00  0.00000000E+00
  0.00000000E+00  0.00000000E+00  0.00000000E+00
  0.00000000E+00  0.00000000E+00  0.00000000E+00
  0.00000000E+00  0.00000000E+00  0.00000000E+00
  0.00000000E+00  0.00000000E+00  0.00000000E+00
  0.00000000E+00  0.00000000E+00  0.00000000E+00
  0.00000000E+00  0.00000000E+00  0.00000000E+00
  0.00000000E+00  0.00000000E+00  0.00000000E+00
  0.00000000E+00  0.00000000E+00  0.00000000E+00
  0.00000000E+00  0.00000000E+00  0.00000000E+00
  0.00000000E+00  0.00000000E+00  0.00000000E+00
  0.00000000E+00  0.00000000E+00  0.00000000E+00
  0.00000000E+00  0.00000000E+00  0.00000000E+00
  0.00000000E+00  0.00000000E+00  0.00000000E+00
  0.00000000E+00  0.00000000E+00  0.00000000E+00
  0.00000000E+00  0.00000000E+00  0.00000000E+00
  0.00000000E+00  0.00000000E+00  0.00000000E+00
  0.00000000E+00  0.00000000E+00  0.00000000E+00
  0.00000000E+00  0.00000000E+00  0.00000000E+00
  0.00000000E+00  0.00000000E+00  0.00000000E+00
  0.00000000E+00  0.00000000E+00  0.00000000E+00
  0.00000000E+00  0.00000000E+00  0.00000000E+00
  0.00000000E+00  0.00000000E+00  0.00000000E+00
  0.00000000E+00  0.00000000E+00  0.00000000E+00
  0.00000000E+00  0.00000000E+00  0.00000000E+00
  0.00000000E+00  0.00000000E+00  0.00000000E+00
  0.00000000E+00  0.00000000E+00  0.00000000E+00
  0.00000000E+00  0.00000000E+00  0.00000000E+00
  0.00000000E+00  0.00000000E+00  0.00000000E+00
  0.00000000E+00  0.00000000E+00  0.00000000E+00
  0.00000000E+00  0.00000000E+00  0.00000000E+00
  0.00000000E+00  0.00000000E+00  0.00000000E+00
  0.00000000E+00  0.00000000E+00  0.00000000E+00
  0.00000000E+00  0.00000000E+00  0.00000000E+00
  0.00000000E+00  0.00000000E+00  0.00000000E+00
  0.00000000E+00  0.00000000E+00  0.00000000E+00
  0.00000000E+00  0.00000000E+00  0.00000000E+00
  0.00000000E+00  0.00000000E+00  0.00000000E+00
  0.00000000E+00  0.00000000E+00  0.00000000E+00
  0.00000000E+00  0.00000000E+00  0.00000000E+00
  0.00000000E+00  0.00000000E+00  0.00000000E+00
