SnO2                                    
   1.00000000000000     
     9.4320271667224951    0.0000000000000000    0.0000000000000000
     0.0000000000000000    9.4320271667224951    0.0000000000000000
     0.0000000000000000    0.0000000000000000    6.3058068431916565
   O    Sn   H 
    32    15     1
Selective dynamics
Direct
  0.0978158768942684  0.9021841231057316  0.7447766994976546   T   T   T
  0.4020700831296263  0.5979299168703730  0.7496171174088250   T   T   T
  0.9035652817778747  0.5969820420908309  0.7501049094483804   T   T   T
  0.6501231533443250  0.1546403804135892  0.0000000000000000   T   T   T
  0.8453596195864105  0.3498768466556755  0.0000000000000000   T   T   T
  0.9021841231057316  0.0978158768942684  0.2552233005023456   T   T   T
  0.5979299168703730  0.4020700831296263  0.2503828825911749   T   T   T
  0.6493660082531235  0.1546152675229246  0.5000000000000000   T   T   T
  0.3506339917468770  0.8453847324770750  0.5000000000000000   T   T   T
  0.8453847324770750  0.3506339917468770  0.5000000000000000   T   T   T
  0.5979299168703730  0.4020700831296263  0.7496171174088250   T   T   T
  0.6521932967199482  0.6521932967199482  0.0000000000000000   T   T   T
  0.8491401310547968  0.8491401310547968  0.0000000000000000   T   T   T
  0.9035652817778747  0.5969820420908309  0.2498950905516193   T   T   T
  0.5969820420908309  0.9035652817778747  0.2498950905516193   T   T   T
  0.6542459903418334  0.6542459903418334  0.5000000000000000   T   T   T
  0.8466313456402426  0.8466313456402426  0.5000000000000000   T   T   T
  0.9021841231057316  0.0978158768942684  0.7447766994976546   T   T   T
  0.1546152675229246  0.6493660082531235  0.5000000000000000   T   T   T
  0.5969820420908309  0.9035652817778747  0.7501049094483804   T   T   T
  0.3457540096581667  0.3457540096581667  0.5000000000000000   T   T   T
  0.0978158768942684  0.9021841231057316  0.2552233005023456   T   T   T
  0.4020700831296263  0.5979299168703730  0.2503828825911749   T   T   T
  0.3498768466556755  0.8453596195864105  0.0000000000000000   T   T   T
  0.1533686543597568  0.1533686543597568  0.5000000000000000   T   T   T
  0.1508598689452029  0.1508598689452029  0.0000000000000000   T   T   T
  0.1546403804135892  0.6501231533443250  0.0000000000000000   T   T   T
  0.0964347182221250  0.4030179579091692  0.2498950905516193   T   T   T
  0.4030179579091692  0.0964347182221250  0.7501049094483804   T   T   T
  0.0964347182221250  0.4030179579091692  0.7501049094483804   T   T   T
  0.3478067032800520  0.3478067032800520  0.0000000000000000   T   T   T
  0.4030179579091692  0.0964347182221250  0.2498950905516193   T   T   T
  0.5000000000000000  0.5000000000000000  0.5000000000000000   T   T   T
  0.7531496887720599  0.7531496887720599  0.7530824615824639   T   T   T
  0.2468503112279409  0.2468503112279409  0.2469175384175357   T   T   T
  0.0000000000000000  0.0000000000000000  0.5000000000000000   T   T   T
  0.7531496887720599  0.7531496887720599  0.2469175384175357   T   T   T
  0.0000000000000000  0.5000000000000000  0.5000000000000000   T   T   T
  0.2468503112279409  0.2468503112279409  0.7530824615824639   T   T   T
  0.2468533402360302  0.7531466597639692  0.7505642833728775   T   T   T
  0.7531466597639692  0.2468533402360302  0.7505642833728776   T   T   T
  0.5000000000000000  0.0000000000000000  0.5000000000000000   T   T   T
  0.0000000000000000  0.5000000000000000  0.0000000000000000   T   T   T
  0.2468533402360302  0.7531466597639692  0.2494357166271228   T   T   T
  0.7531466597639692  0.2468533402360302  0.2494357166271228   T   T   T
  0.5000000000000000  0.0000000000000000  0.0000000000000000   T   T   T
  0.5000000000000000  0.5000000000000000  0.0000000000000000   T   T   T
  0.0000000000000000  0.0000000000000000  0.0000000000000000   T   T   T
 
  0.00000000E+00  0.00000000E+00  0.00000000E+00
  0.00000000E+00  0.00000000E+00  0.00000000E+00
  0.00000000E+00  0.00000000E+00  0.00000000E+00
  0.00000000E+00  0.00000000E+00  0.00000000E+00
  0.00000000E+00  0.00000000E+00  0.00000000E+00
  0.00000000E+00  0.00000000E+00  0.00000000E+00
  0.00000000E+00  0.00000000E+00  0.00000000E+00
  0.00000000E+00  0.00000000E+00  0.00000000E+00
  0.00000000E+00  0.00000000E+00  0.00000000E+00
  0.00000000E+00  0.00000000E+00  0.00000000E+00
  0.00000000E+00  0.00000000E+00  0.00000000E+00
  0.00000000E+00  0.00000000E+00  0.00000000E+00
  0.00000000E+00  0.00000000E+00  0.00000000E+00
  0.00000000E+00  0.00000000E+00  0.00000000E+00
  0.00000000E+00  0.00000000E+00  0.00000000E+00
  0.00000000E+00  0.00000000E+00  0.00000000E+00
  0.00000000E+00  0.00000000E+00  0.00000000E+00
  0.00000000E+00  0.00000000E+00  0.00000000E+00
  0.00000000E+00  0.00000000E+00  0.00000000E+00
  0.00000000E+00  0.00000000E+00  0.00000000E+00
  0.00000000E+00  0.00000000E+00  0.00000000E+00
  0.00000000E+00  0.00000000E+00  0.00000000E+00
  0.00000000E+00  0.00000000E+00  0.00000000E+00
  0.00000000E+00  0.00000000E+00  0.00000000E+00
  0.00000000E+00  0.00000000E+00  0.00000000E+00
  0.00000000E+00  0.00000000E+00  0.00000000E+00
  0.00000000E+00  0.00000000E+00  0.00000000E+00
  0.00000000E+00  0.00000000E+00  0.00000000E+00
  0.00000000E+00  0.00000000E+00  0.00000000E+00
  0.00000000E+00  0.00000000E+00  0.00000000E+00
  0.00000000E+00  0.00000000E+00  0.00000000E+00
  0.00000000E+00  0.00000000E+00  0.00000000E+00
  0.00000000E+00  0.00000000E+00  0.00000000E+00
  0.00000000E+00  0.00000000E+00  0.00000000E+00
  0.00000000E+00  0.00000000E+00  0.00000000E+00
  0.00000000E+00  0.00000000E+00  0.00000000E+00
  0.00000000E+00  0.00000000E+00  0.00000000E+00
  0.00000000E+00  0.00000000E+00  0.00000000E+00
  0.00000000E+00  0.00000000E+00  0.00000000E+00
  0.00000000E+00  0.00000000E+00  0.00000000E+00
  0.00000000E+00  0.00000000E+00  0.00000000E+00
  0.00000000E+00  0.00000000E+00  0.00000000E+00
  0.00000000E+00  0.00000000E+00  0.00000000E+00
  0.00000000E+00  0.00000000E+00  0.00000000E+00
  0.00000000E+00  0.00000000E+00  0.00000000E+00
  0.00000000E+00  0.00000000E+00  0.00000000E+00
  0.00000000E+00  0.00000000E+00  0.00000000E+00
  0.00000000E+00  0.00000000E+00  0.00000000E+00
