SnO2                                    
   1.00000000000000     
     9.4320271667224951    0.0000000000000000    0.0000000000000000
     0.0000000000000000    9.4320271667224951    0.0000000000000000
     0.0000000000000000    0.0000000000000000    6.3058068431916565
   O    Sn
    32    17
Selective dynamics
Direct
  0.0942391732128772  0.9113036896026675  0.7555926546371490   T   T   T
  0.3881990731042028  0.5873295658936415  0.7218238830862947   T   T   T
  0.8970133188393720  0.6009444340730838  0.7692747311045528   T   T   T
  0.6578575738639512  0.1462831093857698  0.0000000000000000   T   T   T
  0.8615761525006632  0.3403326522974864  0.0000000000000000   T   T   T
  0.9021838043941671  0.0990949229363203  0.2552007890892873   T   T   T
  0.6029866811606280  0.3990555659269234  0.2307252688954470   T   T   T
  0.6495389317212624  0.1556971102070577  0.5000000000000000   T   T   T
  0.3460852479131519  0.8536631143033564  0.5000000000000000   T   T   T
  0.8288175797540740  0.3506790466177037  0.5000000000000000   T   T   T
  0.6029866811606280  0.3990555659269234  0.7692747311045528   T   T   T
  0.6384238474993368  0.6596673477025133  0.0000000000000000   T   T   T
  0.8421424261360488  0.8537168906142233  0.0000000000000000   T   T   T
  0.8970133188393720  0.6009444340730838  0.2307252688954470   T   T   T
  0.5978161956058329  0.9009050770636646  0.2552007890892873   T   T   T
  0.6711824202459260  0.6493209533823042  0.5000000000000000   T   T   T
  0.8504610682787376  0.8443028897929420  0.5000000000000000   T   T   T
  0.9021838043941671  0.0990949229363203  0.7447992109107203   T   T   T
  0.1352178670703813  0.6728256686455067  0.5000000000000000   T   T   T
  0.5978161956058329  0.9009050770636646  0.7447992109107203   T   T   T
  0.3647821329296186  0.3271743313544947  0.5000000000000000   T   T   T
  0.0942391732128772  0.9113036896026675  0.2444073453628510   T   T   T
  0.3881990731042028  0.5873295658936415  0.2781761169137124   T   T   T
  0.3584803178920310  0.8467896676154995  0.0000000000000000   T   T   T
  0.1539147520868485  0.1463368856966519  0.5000000000000000   T   T   T
  0.1415196821079692  0.1532103323845022  0.0000000000000000   T   T   T
  0.1598008656149904  0.6574522454496023  0.0000000000000000   T   T   T
  0.1118009268957972  0.4126704341063654  0.2781761169137124   T   T   T
  0.4057608267871225  0.0886963103973398  0.7555926546371490   T   T   T
  0.1118009268957972  0.4126704341063654  0.7218238830862947   T   T   T
  0.3401991343850098  0.3425477545503992  0.0000000000000000   T   T   T
  0.4057608267871225  0.0886963103973398  0.2444073453628510   T   T   T
  0.5476391587376530  0.4856594376832460  0.5000000000000000   T   T   T
  0.7490548702504096  0.7556499630033536  0.7554494731462352   T   T   T
  0.2506434616822718  0.2283437270345181  0.2434838060766039   T   T   T
 -0.0041268205918564 -0.0008027553928343  0.5000000000000000   T   T   T
  0.7490548702504096  0.7556499630033536  0.2445505268537582   T   T   T
  0.9523608412623399  0.5143405623167475  0.5000000000000000   T   T   T
  0.2506434616822718  0.2283437270345181  0.7565161939233896   T   T   T
  0.2493565383177285  0.7716562729654892  0.7565161939233968   T   T   T
  0.7509451297495904  0.2443500369966470  0.7554494731462352   T   T   T
  0.5041268205918557  1.0008027553928345  0.5000000000000000   T   T   T
  0.0096335608653524  0.4998995633223040  0.0000000000000000   T   T   T
  0.2493565383177285  0.7716562729654892  0.2434838060766039   T   T   T
  0.7509451297495904  0.2443500369966470  0.2445505268537652   T   T   T
  0.5102076033994229  0.9959820089289280  0.0000000000000000   T   T   T
  0.4903664391346474  0.5001004366776881  0.0000000000000000   T   T   T
  0.9897923966005842  0.0040179910710723  0.0000000000000000   T   T   T
  0.2500000000000000  0.5000000000000000  0.5000000000000000   T   T   T
 
  0.00000000E+00  0.00000000E+00  0.00000000E+00
  0.00000000E+00  0.00000000E+00  0.00000000E+00
  0.00000000E+00  0.00000000E+00  0.00000000E+00
  0.00000000E+00  0.00000000E+00  0.00000000E+00
  0.00000000E+00  0.00000000E+00  0.00000000E+00
  0.00000000E+00  0.00000000E+00  0.00000000E+00
  0.00000000E+00  0.00000000E+00  0.00000000E+00
  0.00000000E+00  0.00000000E+00  0.00000000E+00
  0.00000000E+00  0.00000000E+00  0.00000000E+00
  0.00000000E+00  0.00000000E+00  0.00000000E+00
  0.00000000E+00  0.00000000E+00  0.00000000E+00
  0.00000000E+00  0.00000000E+00  0.00000000E+00
  0.00000000E+00  0.00000000E+00  0.00000000E+00
  0.00000000E+00  0.00000000E+00  0.00000000E+00
  0.00000000E+00  0.00000000E+00  0.00000000E+00
  0.00000000E+00  0.00000000E+00  0.00000000E+00
  0.00000000E+00  0.00000000E+00  0.00000000E+00
  0.00000000E+00  0.00000000E+00  0.00000000E+00
  0.00000000E+00  0.00000000E+00  0.00000000E+00
  0.00000000E+00  0.00000000E+00  0.00000000E+00
  0.00000000E+00  0.00000000E+00  0.00000000E+00
  0.00000000E+00  0.00000000E+00  0.00000000E+00
  0.00000000E+00  0.00000000E+00  0.00000000E+00
  0.00000000E+00  0.00000000E+00  0.00000000E+00
  0.00000000E+00  0.00000000E+00  0.00000000E+00
  0.00000000E+00  0.00000000E+00  0.00000000E+00
  0.00000000E+00  0.00000000E+00  0.00000000E+00
  0.00000000E+00  0.00000000E+00  0.00000000E+00
  0.00000000E+00  0.00000000E+00  0.00000000E+00
  0.00000000E+00  0.00000000E+00  0.00000000E+00
  0.00000000E+00  0.00000000E+00  0.00000000E+00
  0.00000000E+00  0.00000000E+00  0.00000000E+00
  0.00000000E+00  0.00000000E+00  0.00000000E+00
  0.00000000E+00  0.00000000E+00  0.00000000E+00
  0.00000000E+00  0.00000000E+00  0.00000000E+00
  0.00000000E+00  0.00000000E+00  0.00000000E+00
  0.00000000E+00  0.00000000E+00  0.00000000E+00
  0.00000000E+00  0.00000000E+00  0.00000000E+00
  0.00000000E+00  0.00000000E+00  0.00000000E+00
  0.00000000E+00  0.00000000E+00  0.00000000E+00
  0.00000000E+00  0.00000000E+00  0.00000000E+00
  0.00000000E+00  0.00000000E+00  0.00000000E+00
  0.00000000E+00  0.00000000E+00  0.00000000E+00
  0.00000000E+00  0.00000000E+00  0.00000000E+00
  0.00000000E+00  0.00000000E+00  0.00000000E+00
  0.00000000E+00  0.00000000E+00  0.00000000E+00
  0.00000000E+00  0.00000000E+00  0.00000000E+00
  0.00000000E+00  0.00000000E+00  0.00000000E+00
  0.00000000E+00  0.00000000E+00  0.00000000E+00
