SnO2                                    
   1.00000000000000     
     9.4320271667224951    0.0000000000000000    0.0000000000000000
     0.0000000000000000    9.4320271667224951    0.0000000000000000
     0.0000000000000000    0.0000000000000000    6.3058068431916565
   O    Sn   F 
    31    16     1
Selective dynamics
Direct
  0.0981853023372872  0.9057363501195027  0.7532271320584029   T   T   T
  0.4024456591208161  0.5967349854288092  0.7501985494242717   T   T   T
  0.9021627425940641  0.5967312546925855  0.7494312305969081   T   T   T
  0.6526220643850875  0.1521736118755777 -0.0000000000000000   T   T   T
  0.8475393583830826  0.3469726476518153 -0.0000000000000000   T   T   T
  0.9045951454030673  0.0978786692172924  0.2471215420975565   T   T   T
  0.5965941698541763  0.4029042079473839  0.2496566613960920   T   T   T
  0.6517995141784181  0.1528721197966426  0.5000000000000000   T   T   T
  0.3458730587082108  0.8479788521032479  0.5000000000000000   T   T   T
  0.8478360405016115  0.3460467486713427  0.5000000000000000   T   T   T
  0.5965941698541763  0.4029042079473839  0.7503433386039083   T   T   T
  0.6519928379452150  0.6524658775149684 -0.0000000000000000   T   T   T
  0.8419885270903769  0.8421506903189094 -0.0000000000000000   T   T   T
  0.9021627425940641  0.5967312546925855  0.2505687694030913   T   T   T
  0.5964559038963875  0.9027262389898022  0.2507749063174279   T   T   T
  0.6529259816090905  0.6532313662772351  0.5000000000000000   T   T   T
  0.8475379217501191  0.8473121240154295  0.5000000000000000   T   T   T
  0.9045951454030673  0.0978786692172924  0.7528784579024439   T   T   T
  0.1519923805201788  0.6529470722601683  0.5000000000000000   T   T   T
  0.5964559038963875  0.9027262389898022  0.7492250936825718   T   T   T
  0.3528288794238300  0.3527501550963101  0.5000000000000000   T   T   T
  0.0981853023372872  0.9057363501195027  0.2467728679415969   T   T   T
  0.4024456591208161  0.5967349854288092  0.2498014505757279   T   T   T
  0.3472033509225586  0.8473402939257182 -0.0000000000000000   T   T   T
  0.1552102201990311  0.1562923798900189  0.5000000000000000   T   T   T
  0.1516511653465501  0.6533446037474249 -0.0000000000000000   T   T   T
  0.0978470926674797  0.4005083937660430  0.2480890823319262   T   T   T
  0.3993522339768483  0.0977780794040495  0.7521182361743336   T   T   T
  0.0978470926674797  0.4005083937660430  0.7519109176680739   T   T   T
  0.3452675904087457  0.3455098219386722 -0.0000000000000000   T   T   T
  0.3993522339768483  0.0977780794040495  0.2478817638256663   T   T   T
  0.5033207346512526  0.5035351720438331  0.5000000000000000   T   T   T
  0.7481150902600552  0.7485083398564347  0.7483825465102344   T   T   T
  0.2569567014626539  0.2574904111918091  0.2585054395311541   T   T   T
  0.0010897766289173  0.0012779773046524  0.5000000000000000   T   T   T
  0.7481150902600552  0.7485083398564347  0.2516174534897651   T   T   T
 -0.0004702650909632  0.4997061969873580  0.5000000000000000   T   T   T
  0.2569567014626539  0.2574904111918091  0.7414945604688451   T   T   T
  0.2500789198601533  0.7499592949099937  0.7502923373679987   T   T   T
  0.7495461724912617  0.2503322252555308  0.7502369246906405   T   T   T
  0.4989852116951120  0.0000314173038728  0.5000000000000000   T   T   T
 -0.0011382763294028  0.5008282983403640 -0.0000000000000000   T   T   T
  0.2500789198601533  0.7499592949099937  0.2497076626320017   T   T   T
  0.7495461724912617  0.2503322252555308  0.2497630753093589   T   T   T
  0.5004058835708511 -0.0008486264874994 -0.0000000000000000   T   T   T
  0.5008015057532574  0.5011341220810889 -0.0000000000000000   T   T   T
 -0.0114671131038703 -0.0109048738862666 -0.0000000000000000   T   T   T
  0.1495333830042409  0.1512750496706387 -0.0000000000000000   T   T   T
 
  0.00000000E+00  0.00000000E+00  0.00000000E+00
  0.00000000E+00  0.00000000E+00  0.00000000E+00
  0.00000000E+00  0.00000000E+00  0.00000000E+00
  0.00000000E+00  0.00000000E+00  0.00000000E+00
  0.00000000E+00  0.00000000E+00  0.00000000E+00
  0.00000000E+00  0.00000000E+00  0.00000000E+00
  0.00000000E+00  0.00000000E+00  0.00000000E+00
  0.00000000E+00  0.00000000E+00  0.00000000E+00
  0.00000000E+00  0.00000000E+00  0.00000000E+00
  0.00000000E+00  0.00000000E+00  0.00000000E+00
  0.00000000E+00  0.00000000E+00  0.00000000E+00
  0.00000000E+00  0.00000000E+00  0.00000000E+00
  0.00000000E+00  0.00000000E+00  0.00000000E+00
  0.00000000E+00  0.00000000E+00  0.00000000E+00
  0.00000000E+00  0.00000000E+00  0.00000000E+00
  0.00000000E+00  0.00000000E+00  0.00000000E+00
  0.00000000E+00  0.00000000E+00  0.00000000E+00
  0.00000000E+00  0.00000000E+00  0.00000000E+00
  0.00000000E+00  0.00000000E+00  0.00000000E+00
  0.00000000E+00  0.00000000E+00  0.00000000E+00
  0.00000000E+00  0.00000000E+00  0.00000000E+00
  0.00000000E+00  0.00000000E+00  0.00000000E+00
  0.00000000E+00  0.00000000E+00  0.00000000E+00
  0.00000000E+00  0.00000000E+00  0.00000000E+00
  0.00000000E+00  0.00000000E+00  0.00000000E+00
  0.00000000E+00  0.00000000E+00  0.00000000E+00
  0.00000000E+00  0.00000000E+00  0.00000000E+00
  0.00000000E+00  0.00000000E+00  0.00000000E+00
  0.00000000E+00  0.00000000E+00  0.00000000E+00
  0.00000000E+00  0.00000000E+00  0.00000000E+00
  0.00000000E+00  0.00000000E+00  0.00000000E+00
  0.00000000E+00  0.00000000E+00  0.00000000E+00
  0.00000000E+00  0.00000000E+00  0.00000000E+00
  0.00000000E+00  0.00000000E+00  0.00000000E+00
  0.00000000E+00  0.00000000E+00  0.00000000E+00
  0.00000000E+00  0.00000000E+00  0.00000000E+00
  0.00000000E+00  0.00000000E+00  0.00000000E+00
  0.00000000E+00  0.00000000E+00  0.00000000E+00
  0.00000000E+00  0.00000000E+00  0.00000000E+00
  0.00000000E+00  0.00000000E+00  0.00000000E+00
  0.00000000E+00  0.00000000E+00  0.00000000E+00
  0.00000000E+00  0.00000000E+00  0.00000000E+00
  0.00000000E+00  0.00000000E+00  0.00000000E+00
  0.00000000E+00  0.00000000E+00  0.00000000E+00
  0.00000000E+00  0.00000000E+00  0.00000000E+00
  0.00000000E+00  0.00000000E+00  0.00000000E+00
  0.00000000E+00  0.00000000E+00  0.00000000E+00
  0.00000000E+00  0.00000000E+00  0.00000000E+00
