SnO2                                    
   1.00000000000000     
     9.4320271667224951    0.0000000000000000    0.0000000000000000
     0.0000000000000000    9.4320271667224951    0.0000000000000000
     0.0000000000000000    0.0000000000000000    6.3058068431916565
   O    Sn   H 
    32    15     1
Selective dynamics
Direct
  0.0979293688068088  0.9020706311931915  0.7450207341019232   T   T   T
  0.4022896095835082  0.5977103904164911  0.7498090022046672   T   T   T
  0.9037978799401756  0.5975839420659839  0.7502928019309676   T   T   T
  0.6503742399120663  0.1545377661901894  0.0000000000000000   T   T   T
  0.8454622338098107  0.3496257600879335  0.0000000000000000   T   T   T
  0.9020706311931915  0.0979293688068088  0.2549792658980772   T   T   T
  0.5977103904164911  0.4022896095835082  0.2501909977953333   T   T   T
  0.6499431606373991  0.1543994156913394  0.5000000000000000   T   T   T
  0.3500568393626017  0.8456005843086589  0.5000000000000000   T   T   T
  0.8456005843086589  0.3500568393626017  0.5000000000000000   T   T   T
  0.5977103904164911  0.4022896095835082  0.7498090022046672   T   T   T
  0.6529098471007739  0.6529098471007739  0.0000000000000000   T   T   T
  0.8508301238621720  0.8508301238621720  0.0000000000000000   T   T   T
  0.9037978799401756  0.5975839420659839  0.2497071980690326   T   T   T
  0.5975839420659839  0.9037978799401756  0.2497071980690326   T   T   T
  0.6542842053652089  0.6542842053652089  0.5000000000000000   T   T   T
  0.8471742479720948  0.8471742479720948  0.5000000000000000   T   T   T
  0.9020706311931915  0.0979293688068088  0.7450207341019232   T   T   T
  0.1543994156913394  0.6499431606373991  0.5000000000000000   T   T   T
  0.5975839420659839  0.9037978799401756  0.7502928019309676   T   T   T
  0.3457157946347918  0.3457157946347918  0.5000000000000000   T   T   T
  0.0979293688068088  0.9020706311931915  0.2549792658980772   T   T   T
  0.4022896095835082  0.5977103904164911  0.2501909977953333   T   T   T
  0.3496257600879335  0.8454622338098107  0.0000000000000000   T   T   T
  0.1528257520279059  0.1528257520279059  0.5000000000000000   T   T   T
  0.1491698761378281  0.1491698761378281  0.0000000000000000   T   T   T
  0.1545377661901894  0.6503742399120663  0.0000000000000000   T   T   T
  0.0962021200598243  0.4024160579340162  0.2497071980690326   T   T   T
  0.4024160579340162  0.0962021200598243  0.7502928019309676   T   T   T
  0.0962021200598243  0.4024160579340162  0.7502928019309676   T   T   T
  0.3470901528992254  0.3470901528992254  0.0000000000000000   T   T   T
  0.4024160579340162  0.0962021200598243  0.2497071980690326   T   T   T
  0.5000000000000000  0.5000000000000000  0.5000000000000000   T   T   T
  0.7529476266506617  0.7529476266506617  0.7525189316739227   T   T   T
  0.2470523733493384  0.2470523733493384  0.2474810683260774   T   T   T
  0.0000000000000000  0.0000000000000000  0.5000000000000000   T   T   T
  0.7529476266506617  0.7529476266506617  0.2474810683260774   T   T   T
  0.0000000000000000  0.5000000000000000  0.5000000000000000   T   T   T
  0.2470523733493384  0.2470523733493384  0.7525189316739227   T   T   T
  0.2478382721260123  0.7521617278739877  0.7508076784431603   T   T   T
  0.7521617278739877  0.2478382721260123  0.7508076784431603   T   T   T
  0.5000000000000000  0.0000000000000000  0.5000000000000000   T   T   T
  0.0000000000000000  0.5000000000000000  0.0000000000000000   T   T   T
  0.2478382721260123  0.7521617278739877  0.2491923215568407   T   T   T
  0.7521617278739877  0.2478382721260123  0.2491923215568407   T   T   T
  0.5000000000000000  0.0000000000000000  0.0000000000000000   T   T   T
  0.5000000000000000  0.5000000000000000  0.0000000000000000   T   T   T
  0.0000000000000000  0.0000000000000000  0.0000000000000000   T   T   T
 
  0.00000000E+00  0.00000000E+00  0.00000000E+00
  0.00000000E+00  0.00000000E+00  0.00000000E+00
  0.00000000E+00  0.00000000E+00  0.00000000E+00
  0.00000000E+00  0.00000000E+00  0.00000000E+00
  0.00000000E+00  0.00000000E+00  0.00000000E+00
  0.00000000E+00  0.00000000E+00  0.00000000E+00
  0.00000000E+00  0.00000000E+00  0.00000000E+00
  0.00000000E+00  0.00000000E+00  0.00000000E+00
  0.00000000E+00  0.00000000E+00  0.00000000E+00
  0.00000000E+00  0.00000000E+00  0.00000000E+00
  0.00000000E+00  0.00000000E+00  0.00000000E+00
  0.00000000E+00  0.00000000E+00  0.00000000E+00
  0.00000000E+00  0.00000000E+00  0.00000000E+00
  0.00000000E+00  0.00000000E+00  0.00000000E+00
  0.00000000E+00  0.00000000E+00  0.00000000E+00
  0.00000000E+00  0.00000000E+00  0.00000000E+00
  0.00000000E+00  0.00000000E+00  0.00000000E+00
  0.00000000E+00  0.00000000E+00  0.00000000E+00
  0.00000000E+00  0.00000000E+00  0.00000000E+00
  0.00000000E+00  0.00000000E+00  0.00000000E+00
  0.00000000E+00  0.00000000E+00  0.00000000E+00
  0.00000000E+00  0.00000000E+00  0.00000000E+00
  0.00000000E+00  0.00000000E+00  0.00000000E+00
  0.00000000E+00  0.00000000E+00  0.00000000E+00
  0.00000000E+00  0.00000000E+00  0.00000000E+00
  0.00000000E+00  0.00000000E+00  0.00000000E+00
  0.00000000E+00  0.00000000E+00  0.00000000E+00
  0.00000000E+00  0.00000000E+00  0.00000000E+00
  0.00000000E+00  0.00000000E+00  0.00000000E+00
  0.00000000E+00  0.00000000E+00  0.00000000E+00
  0.00000000E+00  0.00000000E+00  0.00000000E+00
  0.00000000E+00  0.00000000E+00  0.00000000E+00
  0.00000000E+00  0.00000000E+00  0.00000000E+00
  0.00000000E+00  0.00000000E+00  0.00000000E+00
  0.00000000E+00  0.00000000E+00  0.00000000E+00
  0.00000000E+00  0.00000000E+00  0.00000000E+00
  0.00000000E+00  0.00000000E+00  0.00000000E+00
  0.00000000E+00  0.00000000E+00  0.00000000E+00
  0.00000000E+00  0.00000000E+00  0.00000000E+00
  0.00000000E+00  0.00000000E+00  0.00000000E+00
  0.00000000E+00  0.00000000E+00  0.00000000E+00
  0.00000000E+00  0.00000000E+00  0.00000000E+00
  0.00000000E+00  0.00000000E+00  0.00000000E+00
  0.00000000E+00  0.00000000E+00  0.00000000E+00
  0.00000000E+00  0.00000000E+00  0.00000000E+00
  0.00000000E+00  0.00000000E+00  0.00000000E+00
  0.00000000E+00  0.00000000E+00  0.00000000E+00
  0.00000000E+00  0.00000000E+00  0.00000000E+00
