SnO2                                    
   1.00000000000000     
     9.4320271667224951    0.0000000000000000    0.0000000000000000
     0.0000000000000000    9.4320271667224951    0.0000000000000000
     0.0000000000000000    0.0000000000000000    6.3058068431916565
   O    Sn
    32    17
Selective dynamics
Direct
  0.0933095858863723  0.9123237739915993  0.7548795443130925   T   T   T
  0.3776451034841138  0.5929593878736990  0.7413115748876681   T   T   T
  0.8959868319886125  0.6008656662603258  0.7773177997134257   T   T   T
  0.6592934145703043  0.1433858504927948  0.0000000000000000   T   T   T
  0.8647491715822067  0.3378031548742966  0.0000000000000000   T   T   T
  0.9010671193824425  0.0992590222719594  0.2548932432271761   T   T   T
  0.6040131680113875  0.3991343337396815  0.2226822002865743   T   T   T
  0.6489017435419868  0.1544866570859989  0.5000000000000000   T   T   T
  0.3488191070226818  0.8551826441562581  0.5000000000000000   T   T   T
  0.8221645275963866  0.3506688467633386  0.5000000000000000   T   T   T
  0.6040131680113875  0.3991343337396815  0.7773177997134257   T   T   T
  0.6352508284177933  0.6621968451257046  0.0000000000000000   T   T   T
  0.8407065854296957  0.8566141495071974  0.0000000000000000   T   T   T
  0.8959868319886125  0.6008656662603258  0.2226822002865743   T   T   T
  0.5989328806175575  0.9007409777280272  0.2548932432271761   T   T   T
  0.6778354724036134  0.6493311532366698  0.5000000000000000   T   T   T
  0.8510982564580132  0.8455133429140012  0.5000000000000000   T   T   T
  0.9010671193824425  0.0992590222719594  0.7451067567728293   T   T   T
  0.1445236863211527  0.6807372458068796  0.5000000000000000   T   T   T
  0.5989328806175575  0.9007409777280272  0.7451067567728293   T   T   T
  0.3554763136788465  0.3192627541931193  0.5000000000000000   T   T   T
  0.0933095858863723  0.9123237739915993  0.2451204556869064   T   T   T
  0.3776451034841138  0.5929593878736990  0.2586884251123392   T   T   T
  0.3549110247996654  0.8524610401107952  0.0000000000000000   T   T   T
  0.1511808929773182  0.1448173558437497  0.5000000000000000   T   T   T
  0.1450889752003346  0.1475389598892058  0.0000000000000000   T   T   T
  0.1499694059563870  0.6673109091522085  0.0000000000000000   T   T   T
  0.1223548965158860  0.4070406121263079  0.2586884251123392   T   T   T
  0.4066904141136274  0.0876762260084088  0.7548795443130925   T   T   T
  0.1223548965158860  0.4070406121263079  0.7413115748876681   T   T   T
  0.3500305940436136  0.3326890908477921  0.0000000000000000   T   T   T
  0.4066904141136274  0.0876762260084088  0.2451204556869064   T   T   T
  0.5506381033496239  0.4840968087196098  0.5000000000000000   T   T   T
  0.7500058794871766  0.7550894110514845  0.7568551788812123   T   T   T
  0.2511525075839932  0.2271200171865851  0.2429621065343675   T   T   T
 -0.0047154000488594 -0.0001910245737362  0.5000000000000000   T   T   T
  0.7500058794871766  0.7550894110514845  0.2431448211187803   T   T   T
  0.9493618966503690  0.5159031912803829  0.5000000000000000   T   T   T
  0.2511525075839932  0.2271200171865851  0.7570378934656239   T   T   T
  0.2488474924160065  0.7728799828134224  0.7570378934656310   T   T   T
  0.7499941205128234  0.2449105889485145  0.7568551788812123   T   T   T
  0.5047154000488607  1.0001910245737367  0.5000000000000000   T   T   T
  0.0136340750805230  0.4988865575473347  0.0000000000000000   T   T   T
  0.2488474924160065  0.7728799828134224  0.2429621065343675   T   T   T
  0.7499941205128234  0.2449105889485145  0.2431448211187874   T   T   T
  0.5100920889834266  0.9956679386624282  0.0000000000000000   T   T   T
  0.4863659249194764  0.5011134424526584  0.0000000000000000   T   T   T
  0.9899079110165805  0.0043320613375719  0.0000000000000000   T   T   T
  0.2500000000000000  0.5000000000000000  0.5000000000000000   T   T   T
 
  0.00000000E+00  0.00000000E+00  0.00000000E+00
  0.00000000E+00  0.00000000E+00  0.00000000E+00
  0.00000000E+00  0.00000000E+00  0.00000000E+00
  0.00000000E+00  0.00000000E+00  0.00000000E+00
  0.00000000E+00  0.00000000E+00  0.00000000E+00
  0.00000000E+00  0.00000000E+00  0.00000000E+00
  0.00000000E+00  0.00000000E+00  0.00000000E+00
  0.00000000E+00  0.00000000E+00  0.00000000E+00
  0.00000000E+00  0.00000000E+00  0.00000000E+00
  0.00000000E+00  0.00000000E+00  0.00000000E+00
  0.00000000E+00  0.00000000E+00  0.00000000E+00
  0.00000000E+00  0.00000000E+00  0.00000000E+00
  0.00000000E+00  0.00000000E+00  0.00000000E+00
  0.00000000E+00  0.00000000E+00  0.00000000E+00
  0.00000000E+00  0.00000000E+00  0.00000000E+00
  0.00000000E+00  0.00000000E+00  0.00000000E+00
  0.00000000E+00  0.00000000E+00  0.00000000E+00
  0.00000000E+00  0.00000000E+00  0.00000000E+00
  0.00000000E+00  0.00000000E+00  0.00000000E+00
  0.00000000E+00  0.00000000E+00  0.00000000E+00
  0.00000000E+00  0.00000000E+00  0.00000000E+00
  0.00000000E+00  0.00000000E+00  0.00000000E+00
  0.00000000E+00  0.00000000E+00  0.00000000E+00
  0.00000000E+00  0.00000000E+00  0.00000000E+00
  0.00000000E+00  0.00000000E+00  0.00000000E+00
  0.00000000E+00  0.00000000E+00  0.00000000E+00
  0.00000000E+00  0.00000000E+00  0.00000000E+00
  0.00000000E+00  0.00000000E+00  0.00000000E+00
  0.00000000E+00  0.00000000E+00  0.00000000E+00
  0.00000000E+00  0.00000000E+00  0.00000000E+00
  0.00000000E+00  0.00000000E+00  0.00000000E+00
  0.00000000E+00  0.00000000E+00  0.00000000E+00
  0.00000000E+00  0.00000000E+00  0.00000000E+00
  0.00000000E+00  0.00000000E+00  0.00000000E+00
  0.00000000E+00  0.00000000E+00  0.00000000E+00
  0.00000000E+00  0.00000000E+00  0.00000000E+00
  0.00000000E+00  0.00000000E+00  0.00000000E+00
  0.00000000E+00  0.00000000E+00  0.00000000E+00
  0.00000000E+00  0.00000000E+00  0.00000000E+00
  0.00000000E+00  0.00000000E+00  0.00000000E+00
  0.00000000E+00  0.00000000E+00  0.00000000E+00
  0.00000000E+00  0.00000000E+00  0.00000000E+00
  0.00000000E+00  0.00000000E+00  0.00000000E+00
  0.00000000E+00  0.00000000E+00  0.00000000E+00
  0.00000000E+00  0.00000000E+00  0.00000000E+00
  0.00000000E+00  0.00000000E+00  0.00000000E+00
  0.00000000E+00  0.00000000E+00  0.00000000E+00
  0.00000000E+00  0.00000000E+00  0.00000000E+00
  0.00000000E+00  0.00000000E+00  0.00000000E+00
