SnO2                                    
   1.00000000000000     
     9.4320271667224951    0.0000000000000000    0.0000000000000000
     0.0000000000000000    9.4320271667224951    0.0000000000000000
     0.0000000000000000    0.0000000000000000    6.3058068431916565
   O    Sn
    31    16
Selective dynamics
Direct
  0.1021982688247264  0.9117172301153179  0.7570888663162070   T   T   T
  0.4011514849010644  0.5936779424740979  0.7513317295522525   T   T   T
  0.9034725887627306  0.5962535952095336  0.7489056088411473   T   T   T
  0.6535100875450318  0.1509318856833465  0.0000000000000000   T   T   T
  0.8460361473727073  0.3481364949649662  0.0000000000000000   T   T   T
  0.9117172301153179  0.1021982688247264  0.2429111336837931   T   T   T
  0.5936779424740979  0.4011514849010644  0.2486682704477476   T   T   T
  0.6529097057871759  0.1515621467957888  0.5000000000000000   T   T   T
  0.3457946920717509  0.8467127373988594  0.5000000000000000   T   T   T
  0.8467127373988594  0.3457946920717509  0.5000000000000000   T   T   T
  0.5936779424740979  0.4011514849010644  0.7513317295522525   T   T   T
  0.6523494790615709  0.6523494790615709  0.0000000000000000   T   T   T
  0.8397748795951258  0.8397748795951258  0.0000000000000000   T   T   T
  0.9034725887627306  0.5962535952095336  0.2510943911588527   T   T   T
  0.5962535952095336  0.9034725887627306  0.2510943911588527   T   T   T
  0.6536161715309237  0.6536161715309237  0.5000000000000000   T   T   T
  0.8488288856436076  0.8488288856436076  0.5000000000000000   T   T   T
  0.9117172301153179  0.1021982688247264  0.7570888663162070   T   T   T
  0.1515621467957888  0.6529097057871759  0.5000000000000000   T   T   T
  0.5962535952095336  0.9034725887627306  0.7489056088411473   T   T   T
  0.3548283055868748  0.3548283055868748  0.5000000000000000   T   T   T
  0.1021982688247264  0.9117172301153179  0.2429111336837931   T   T   T
  0.4011514849010644  0.5936779424740979  0.2486682704477476   T   T   T
  0.3481364949649662  0.8460361473727073  0.0000000000000000   T   T   T
  0.1572356050003732  0.1572356050003732  0.5000000000000000   T   T   T
  0.1509318856833465  0.6535100875450318  0.0000000000000000   T   T   T
  0.0970042932867579  0.3954092467265835  0.2458192766230631   T   T   T
  0.3954092467265835  0.0970042932867579  0.7541807233769370   T   T   T
  0.0970042932867579  0.3954092467265835  0.7541807233769370   T   T   T
  0.3374878249778284  0.3374878249778284  0.0000000000000000   T   T   T
  0.3954092467265835  0.0970042932867579  0.2458192766230631   T   T   T
  0.5049678336453913  0.5049678336453913  0.5000000000000000   T   T   T
  0.7476796899364404  0.7476796899364404  0.7475869798529750   T   T   T
  0.2602330410110283  0.2602330410110283  0.2649342603201654   T   T   T
  0.0024152986324285  0.0024152986324285  0.5000000000000000   T   T   T
  0.7476796899364404  0.7476796899364404  0.2524130201470253   T   T   T
  0.9987513846593377  0.4989088866223788  0.5000000000000000   T   T   T
  0.2602330410110283  0.2602330410110283  0.7350657396798345   T   T   T
  0.2509192325254316  0.7491380170398972  0.7509677443560371   T   T   T
  0.7491380170398972  0.2509192325254316  0.7509677443560371   T   T   T
  0.4989088866223788  0.9987513846593377  0.5000000000000000   T   T   T
  0.9982498558236595  0.5007005500810711  0.0000000000000000   T   T   T
  0.2509192325254316  0.7491380170398972  0.2490322556439628   T   T   T
  0.7491380170398972  0.2509192325254316  0.2490322556439628   T   T   T
  0.5007005500810711  0.9982498558236595  0.0000000000000000   T   T   T
  0.5021142387015155  0.5021142387015155  0.0000000000000000   T   T   T
 -0.0164574463355097 -0.0164574463355097  0.0000000000000000   T   T   T
 
  0.00000000E+00  0.00000000E+00  0.00000000E+00
  0.00000000E+00  0.00000000E+00  0.00000000E+00
  0.00000000E+00  0.00000000E+00  0.00000000E+00
  0.00000000E+00  0.00000000E+00  0.00000000E+00
  0.00000000E+00  0.00000000E+00  0.00000000E+00
  0.00000000E+00  0.00000000E+00  0.00000000E+00
  0.00000000E+00  0.00000000E+00  0.00000000E+00
  0.00000000E+00  0.00000000E+00  0.00000000E+00
  0.00000000E+00  0.00000000E+00  0.00000000E+00
  0.00000000E+00  0.00000000E+00  0.00000000E+00
  0.00000000E+00  0.00000000E+00  0.00000000E+00
  0.00000000E+00  0.00000000E+00  0.00000000E+00
  0.00000000E+00  0.00000000E+00  0.00000000E+00
  0.00000000E+00  0.00000000E+00  0.00000000E+00
  0.00000000E+00  0.00000000E+00  0.00000000E+00
  0.00000000E+00  0.00000000E+00  0.00000000E+00
  0.00000000E+00  0.00000000E+00  0.00000000E+00
  0.00000000E+00  0.00000000E+00  0.00000000E+00
  0.00000000E+00  0.00000000E+00  0.00000000E+00
  0.00000000E+00  0.00000000E+00  0.00000000E+00
  0.00000000E+00  0.00000000E+00  0.00000000E+00
  0.00000000E+00  0.00000000E+00  0.00000000E+00
  0.00000000E+00  0.00000000E+00  0.00000000E+00
  0.00000000E+00  0.00000000E+00  0.00000000E+00
  0.00000000E+00  0.00000000E+00  0.00000000E+00
  0.00000000E+00  0.00000000E+00  0.00000000E+00
  0.00000000E+00  0.00000000E+00  0.00000000E+00
  0.00000000E+00  0.00000000E+00  0.00000000E+00
  0.00000000E+00  0.00000000E+00  0.00000000E+00
  0.00000000E+00  0.00000000E+00  0.00000000E+00
  0.00000000E+00  0.00000000E+00  0.00000000E+00
  0.00000000E+00  0.00000000E+00  0.00000000E+00
  0.00000000E+00  0.00000000E+00  0.00000000E+00
  0.00000000E+00  0.00000000E+00  0.00000000E+00
  0.00000000E+00  0.00000000E+00  0.00000000E+00
  0.00000000E+00  0.00000000E+00  0.00000000E+00
  0.00000000E+00  0.00000000E+00  0.00000000E+00
  0.00000000E+00  0.00000000E+00  0.00000000E+00
  0.00000000E+00  0.00000000E+00  0.00000000E+00
  0.00000000E+00  0.00000000E+00  0.00000000E+00
  0.00000000E+00  0.00000000E+00  0.00000000E+00
  0.00000000E+00  0.00000000E+00  0.00000000E+00
  0.00000000E+00  0.00000000E+00  0.00000000E+00
  0.00000000E+00  0.00000000E+00  0.00000000E+00
  0.00000000E+00  0.00000000E+00  0.00000000E+00
  0.00000000E+00  0.00000000E+00  0.00000000E+00
  0.00000000E+00  0.00000000E+00  0.00000000E+00
