SnO2                                    
   1.00000000000000     
     9.4320271667224951    0.0000000000000000    0.0000000000000000
     0.0000000000000000    9.4320271667224951    0.0000000000000000
     0.0000000000000000    0.0000000000000000    6.3058068431916565
   O    Sn   F 
    32    16     1
Selective dynamics
Direct
  0.1038937585155962  0.8961062414844033  0.7500000000000000   T   T   T
  0.4044965977239230  0.5955034022760765  0.7500000000000000   T   T   T
  0.9075733911332490  0.6047304377725099  0.7500000000000000   T   T   T
  0.6400761651801725  0.1609541168815087 -0.0233069035178798   T   T   T
  0.8390458831184915  0.3599238348198278 -0.0233069035178798   T   T   T
  0.8596054455025349  0.1403945544974651  0.2500000000000000   T   T   T
  0.5823335726068312  0.4176664273931692  0.2500000000000000   T   T   T
  0.6400761651801725  0.1609541168815087  0.5233069035178798   T   T   T
  0.3599238348198278  0.8390458831184915  0.5233069035178798   T   T   T
  0.8390458831184915  0.3599238348198278  0.5233069035178798   T   T   T
  0.5955034022760765  0.4044965977239230  0.7500000000000000   T   T   T
  0.6528811335927843  0.6528811335927843 -0.0000117720171371   T   T   T
  0.8501021811634647  0.8501021811634647 -0.0037051249858395   T   T   T
  0.9065196423192404  0.5997680668222040  0.2500000000000000   T   T   T
  0.5997680668222040  0.9065196423192404  0.2500000000000000   T   T   T
  0.6528811335927843  0.6528811335927843  0.5000117720171369   T   T   T
  0.8501021811634647  0.8501021811634647  0.5037051249858396   T   T   T
  0.8961062414844034  0.1038937585155962  0.7500000000000000   T   T   T
  0.1609541168815087  0.6400761651801725  0.5233069035178797   T   T   T
  0.6047304377725099  0.9075733911332490  0.7500000000000000   T   T   T
  0.3471188664072160  0.3471188664072160  0.5000117720171369   T   T   T
  0.1403945544974651  0.8596054455025349  0.2500000000000000   T   T   T
  0.4176664273931692  0.5823335726068312  0.2500000000000000   T   T   T
  0.3599238348198278  0.8390458831184915 -0.0233069035178798   T   T   T
  0.1498978188365351  0.1498978188365351  0.5037051249858396   T   T   T
  0.1498978188365351  0.1498978188365351 -0.0037051249858395   T   T   T
  0.1609541168815087  0.6400761651801725 -0.0233069035178798   T   T   T
  0.0934803576807595  0.4002319331777965  0.2500000000000000   T   T   T
  0.3952695622274899  0.0924266088667510  0.7500000000000000   T   T   T
  0.0924266088667510  0.3952695622274899  0.7500000000000000   T   T   T
  0.3471188664072160  0.3471188664072160 -0.0000117720171371   T   T   T
  0.4002319331777965  0.0934803576807595  0.2500000000000000   T   T   T
  0.5000000000000000  0.5000000000000000  0.5119436892891430   T   T   T
  0.7495439090057540  0.7495439090057540  0.7500000000000000   T   T   T
  0.2476263998794742  0.2476263998794742  0.2500000000000000   T   T   T
  0.0000000000000000  0.0000000000000000  0.5328512825971844   T   T   T
  0.7523736001205258  0.7523736001205257  0.2500000000000000   T   T   T
  0.0000000000000000  0.5000000000000000  0.5028971448490883   T   T   T
  0.2504560909942460  0.2504560909942460  0.7500000000000000   T   T   T
  0.2541753998205848  0.7458246001794147  0.7500000000000000   T   T   T
  0.7458246001794147  0.2541753998205848  0.7500000000000000   T   T   T
  0.5000000000000000  0.0000000000000000  0.5028971448490883   T   T   T
  0.0000000000000000  0.5000000000000000 -0.0028971448490883   T   T   T
  0.2711020333174652  0.7288979666825351  0.2500000000000000   T   T   T
  0.7288979666825351  0.2711020333174652  0.2500000000000000   T   T   T
  0.5000000000000000  0.0000000000000000 -0.0028971448490883   T   T   T
  0.5000000000000000  0.5000000000000000 -0.0119436892891429   T   T   T
  0.0000000000000000  0.0000000000000000 -0.0328512825971843   T   T   T
  0.0000000000000000  0.0000000000000000  0.2500000000000000   T   T   T
 
  0.00000000E+00  0.00000000E+00  0.00000000E+00
  0.00000000E+00  0.00000000E+00  0.00000000E+00
  0.00000000E+00  0.00000000E+00  0.00000000E+00
  0.00000000E+00  0.00000000E+00  0.00000000E+00
  0.00000000E+00  0.00000000E+00  0.00000000E+00
  0.00000000E+00  0.00000000E+00  0.00000000E+00
  0.00000000E+00  0.00000000E+00  0.00000000E+00
  0.00000000E+00  0.00000000E+00  0.00000000E+00
  0.00000000E+00  0.00000000E+00  0.00000000E+00
  0.00000000E+00  0.00000000E+00  0.00000000E+00
  0.00000000E+00  0.00000000E+00  0.00000000E+00
  0.00000000E+00  0.00000000E+00  0.00000000E+00
  0.00000000E+00  0.00000000E+00  0.00000000E+00
  0.00000000E+00  0.00000000E+00  0.00000000E+00
  0.00000000E+00  0.00000000E+00  0.00000000E+00
  0.00000000E+00  0.00000000E+00  0.00000000E+00
  0.00000000E+00  0.00000000E+00  0.00000000E+00
  0.00000000E+00  0.00000000E+00  0.00000000E+00
  0.00000000E+00  0.00000000E+00  0.00000000E+00
  0.00000000E+00  0.00000000E+00  0.00000000E+00
  0.00000000E+00  0.00000000E+00  0.00000000E+00
  0.00000000E+00  0.00000000E+00  0.00000000E+00
  0.00000000E+00  0.00000000E+00  0.00000000E+00
  0.00000000E+00  0.00000000E+00  0.00000000E+00
  0.00000000E+00  0.00000000E+00  0.00000000E+00
  0.00000000E+00  0.00000000E+00  0.00000000E+00
  0.00000000E+00  0.00000000E+00  0.00000000E+00
  0.00000000E+00  0.00000000E+00  0.00000000E+00
  0.00000000E+00  0.00000000E+00  0.00000000E+00
  0.00000000E+00  0.00000000E+00  0.00000000E+00
  0.00000000E+00  0.00000000E+00  0.00000000E+00
  0.00000000E+00  0.00000000E+00  0.00000000E+00
  0.00000000E+00  0.00000000E+00  0.00000000E+00
  0.00000000E+00  0.00000000E+00  0.00000000E+00
  0.00000000E+00  0.00000000E+00  0.00000000E+00
  0.00000000E+00  0.00000000E+00  0.00000000E+00
  0.00000000E+00  0.00000000E+00  0.00000000E+00
  0.00000000E+00  0.00000000E+00  0.00000000E+00
  0.00000000E+00  0.00000000E+00  0.00000000E+00
  0.00000000E+00  0.00000000E+00  0.00000000E+00
  0.00000000E+00  0.00000000E+00  0.00000000E+00
  0.00000000E+00  0.00000000E+00  0.00000000E+00
  0.00000000E+00  0.00000000E+00  0.00000000E+00
  0.00000000E+00  0.00000000E+00  0.00000000E+00
  0.00000000E+00  0.00000000E+00  0.00000000E+00
  0.00000000E+00  0.00000000E+00  0.00000000E+00
  0.00000000E+00  0.00000000E+00  0.00000000E+00
  0.00000000E+00  0.00000000E+00  0.00000000E+00
  0.00000000E+00  0.00000000E+00  0.00000000E+00
