SnO2                                    
   1.00000000000000     
     9.4320271667224951    0.0000000000000000    0.0000000000000000
     0.0000000000000000    9.4320271667224951    0.0000000000000000
     0.0000000000000000    0.0000000000000000    6.3058068431916565
   O    Sn
    32    16
Selective dynamics
Direct
  0.0970749124734311  0.9029250875265689  0.7500000000000000   T   T   T
  0.4029250875265689  0.5970749124734311  0.7500000000000000   T   T   T
  0.9029250875265689  0.5970749124734311  0.7500000000000000   T   T   T
  0.6529250875265689  0.1529250875265689  0.0000000000000000   T   T   T
  0.8470749124734311  0.3470749124734311  0.0000000000000000   T   T   T
  0.9029250875265689  0.0970749124734311  0.2500000000000000   T   T   T
  0.5970749124734311  0.4029250875265689  0.2500000000000000   T   T   T
  0.6529250875265689  0.1529250875265689  0.5000000000000000   T   T   T
  0.3470749124734311  0.8470749124734311  0.5000000000000000   T   T   T
  0.8470749124734311  0.3470749124734311  0.5000000000000000   T   T   T
  0.5970749124734311  0.4029250875265689  0.7500000000000000   T   T   T
  0.6529250875265689  0.6529250875265689  0.0000000000000000   T   T   T
  0.8470749124734311  0.8470749124734311  0.0000000000000000   T   T   T
  0.9029250875265689  0.5970749124734311  0.2500000000000000   T   T   T
  0.5970749124734311  0.9029250875265689  0.2500000000000000   T   T   T
  0.6529250875265689  0.6529250875265689  0.5000000000000000   T   T   T
  0.8470749124734311  0.8470749124734311  0.5000000000000000   T   T   T
  0.9029250875265689  0.0970749124734311  0.7500000000000000   T   T   T
  0.1529250875265689  0.6529250875265689  0.5000000000000000   T   T   T
  0.5970749124734311  0.9029250875265689  0.7500000000000000   T   T   T
  0.3470749124734311  0.3470749124734311  0.5000000000000000   T   T   T
  0.0970749124734311  0.9029250875265689  0.2500000000000000   T   T   T
  0.4029250875265689  0.5970749124734311  0.2500000000000000   T   T   T
  0.3470749124734311  0.8470749124734311  0.0000000000000000   T   T   T
  0.1529250875265689  0.1529250875265689  0.5000000000000000   T   T   T
  0.1529250875265689  0.1529250875265689  0.0000000000000000   T   T   T
  0.1529250875265689  0.6529250875265689  0.0000000000000000   T   T   T
  0.0970749124734311  0.4029250875265689  0.2500000000000000   T   T   T
  0.4029250875265689  0.0970749124734311  0.7500000000000000   T   T   T
  0.0970749124734311  0.4029250875265689  0.7500000000000000   T   T   T
  0.3470749124734311  0.3470749124734311  0.0000000000000000   T   T   T
  0.4029250875265689  0.0970749124734311  0.2500000000000000   T   T   T
  0.5000000000000000  0.5000000000000000  0.5000000000000000   T   T   T
  0.7500000000000000  0.7500000000000000  0.7500000000000000   T   T   T
  0.2500000000000000  0.2500000000000000  0.2500000000000000   T   T   T
  0.0000000000000000  0.0000000000000000  0.5000000000000000   T   T   T
  0.7500000000000000  0.7500000000000000  0.2500000000000000   T   T   T
  0.0000000000000000  0.5000000000000000  0.5000000000000000   T   T   T
  0.2500000000000000  0.2500000000000000  0.7500000000000000   T   T   T
  0.2500000000000000  0.7500000000000000  0.7500000000000000   T   T   T
  0.7500000000000000  0.2500000000000000  0.7500000000000000   T   T   T
  0.5000000000000000  0.0000000000000000  0.5000000000000000   T   T   T
  0.0000000000000000  0.5000000000000000  0.0000000000000000   T   T   T
  0.2500000000000000  0.7500000000000000  0.2500000000000000   T   T   T
  0.7500000000000000  0.2500000000000000  0.2500000000000000   T   T   T
  0.5000000000000000  0.0000000000000000  0.0000000000000000   T   T   T
  0.5000000000000000  0.5000000000000000  0.0000000000000000   T   T   T
  0.0000000000000000  0.0000000000000000  0.0000000000000000   T   T   T
 
  0.00000000E+00  0.00000000E+00  0.00000000E+00
  0.00000000E+00  0.00000000E+00  0.00000000E+00
  0.00000000E+00  0.00000000E+00  0.00000000E+00
  0.00000000E+00  0.00000000E+00  0.00000000E+00
  0.00000000E+00  0.00000000E+00  0.00000000E+00
  0.00000000E+00  0.00000000E+00  0.00000000E+00
  0.00000000E+00  0.00000000E+00  0.00000000E+00
  0.00000000E+00  0.00000000E+00  0.00000000E+00
  0.00000000E+00  0.00000000E+00  0.00000000E+00
  0.00000000E+00  0.00000000E+00  0.00000000E+00
  0.00000000E+00  0.00000000E+00  0.00000000E+00
  0.00000000E+00  0.00000000E+00  0.00000000E+00
  0.00000000E+00  0.00000000E+00  0.00000000E+00
  0.00000000E+00  0.00000000E+00  0.00000000E+00
  0.00000000E+00  0.00000000E+00  0.00000000E+00
  0.00000000E+00  0.00000000E+00  0.00000000E+00
  0.00000000E+00  0.00000000E+00  0.00000000E+00
  0.00000000E+00  0.00000000E+00  0.00000000E+00
  0.00000000E+00  0.00000000E+00  0.00000000E+00
  0.00000000E+00  0.00000000E+00  0.00000000E+00
  0.00000000E+00  0.00000000E+00  0.00000000E+00
  0.00000000E+00  0.00000000E+00  0.00000000E+00
  0.00000000E+00  0.00000000E+00  0.00000000E+00
  0.00000000E+00  0.00000000E+00  0.00000000E+00
  0.00000000E+00  0.00000000E+00  0.00000000E+00
  0.00000000E+00  0.00000000E+00  0.00000000E+00
  0.00000000E+00  0.00000000E+00  0.00000000E+00
  0.00000000E+00  0.00000000E+00  0.00000000E+00
  0.00000000E+00  0.00000000E+00  0.00000000E+00
  0.00000000E+00  0.00000000E+00  0.00000000E+00
  0.00000000E+00  0.00000000E+00  0.00000000E+00
  0.00000000E+00  0.00000000E+00  0.00000000E+00
  0.00000000E+00  0.00000000E+00  0.00000000E+00
  0.00000000E+00  0.00000000E+00  0.00000000E+00
  0.00000000E+00  0.00000000E+00  0.00000000E+00
  0.00000000E+00  0.00000000E+00  0.00000000E+00
  0.00000000E+00  0.00000000E+00  0.00000000E+00
  0.00000000E+00  0.00000000E+00  0.00000000E+00
  0.00000000E+00  0.00000000E+00  0.00000000E+00
  0.00000000E+00  0.00000000E+00  0.00000000E+00
  0.00000000E+00  0.00000000E+00  0.00000000E+00
  0.00000000E+00  0.00000000E+00  0.00000000E+00
  0.00000000E+00  0.00000000E+00  0.00000000E+00
  0.00000000E+00  0.00000000E+00  0.00000000E+00
  0.00000000E+00  0.00000000E+00  0.00000000E+00
  0.00000000E+00  0.00000000E+00  0.00000000E+00
  0.00000000E+00  0.00000000E+00  0.00000000E+00
  0.00000000E+00  0.00000000E+00  0.00000000E+00
