SnO2                                    
   1.00000000000000     
     9.4320271667224951    0.0000000000000000    0.0000000000000000
    -0.0000000000000000    9.4320271667224951    0.0000000000000000
     0.0000000000000000    0.0000000000000000    6.3058068431916565
   O    Sn
    32    16
Selective dynamics
Direct
  0.0970749124734315  0.9029250875265684  0.7500000000000000   T   T   T
  0.4029250875265685  0.5970749124734316  0.7500000000000000   T   T   T
  0.9029250875265684  0.5970749124734316  0.7500000000000000   T   T   T
  0.6529250875265684  0.1529250875265685 -0.0000000000000000   T   T   T
  0.8470749124734316  0.3470749124734315 -0.0000000000000000   T   T   T
  0.9029250875265684  0.0970749124734315  0.2500000000000000   T   T   T
  0.5970749124734316  0.4029250875265685  0.2500000000000000   T   T   T
  0.6529250875265684  0.1529250875265685  0.5000000000000000   T   T   T
  0.3470749124734315  0.8470749124734316  0.5000000000000000   T   T   T
  0.8470749124734316  0.3470749124734315  0.5000000000000000   T   T   T
  0.5970749124734316  0.4029250875265685  0.7500000000000000   T   T   T
  0.6529250875265684  0.6529250875265684 -0.0000000000000000   T   T   T
  0.8470749124734316  0.8470749124734316  0.0000000000000000   T   T   T
  0.9029250875265684  0.5970749124734316  0.2500000000000000   T   T   T
  0.5970749124734316  0.9029250875265684  0.2500000000000000   T   T   T
  0.6529250875265684  0.6529250875265684  0.5000000000000000   T   T   T
  0.8470749124734316  0.8470749124734316  0.5000000000000000   T   T   T
  0.9029250875265684  0.0970749124734315  0.7500000000000000   T   T   T
  0.1529250875265685  0.6529250875265684  0.5000000000000000   T   T   T
  0.5970749124734316  0.9029250875265684  0.7500000000000000   T   T   T
  0.3470749124734315  0.3470749124734315  0.5000000000000000   T   T   T
  0.0970749124734315  0.9029250875265684  0.2500000000000000   T   T   T
  0.4029250875265685  0.5970749124734316  0.2500000000000000   T   T   T
  0.3470749124734315  0.8470749124734316 -0.0000000000000000   T   T   T
  0.1529250875265685  0.1529250875265685  0.5000000000000000   T   T   T
  0.1529250875265685  0.1529250875265685 -0.0000000000000000   T   T   T
  0.1529250875265685  0.6529250875265684  0.0000000000000000   T   T   T
  0.0970749124734315  0.4029250875265685  0.2500000000000000   T   T   T
  0.4029250875265685  0.0970749124734315  0.7500000000000000   T   T   T
  0.0970749124734315  0.4029250875265685  0.7500000000000000   T   T   T
  0.3470749124734315  0.3470749124734315 -0.0000000000000000   T   T   T
  0.4029250875265685  0.0970749124734315  0.2500000000000000   T   T   T
  0.5000000000000000  0.5000000000000000  0.5000000000000000   T   T   T
  0.7500000000000000  0.7500000000000000  0.7500000000000000   T   T   T
  0.2500000000000000  0.2500000000000000  0.2500000000000000   T   T   T
  0.0000000000000000 -0.0000000000000000  0.5000000000000000   T   T   T
  0.7500000000000000  0.7500000000000000  0.2500000000000000   T   T   T
  0.0000000000000000  0.5000000000000000  0.5000000000000000   T   T   T
  0.2500000000000000  0.2500000000000000  0.7500000000000000   T   T   T
  0.2500000000000000  0.7500000000000000  0.7500000000000000   T   T   T
  0.7500000000000000  0.2500000000000000  0.7500000000000000   T   T   T
  0.5000000000000000 -0.0000000000000000  0.5000000000000000   T   T   T
  0.0000000000000000  0.5000000000000000  0.0000000000000000   T   T   T
  0.2500000000000000  0.7500000000000000  0.2500000000000000   T   T   T
  0.7500000000000000  0.2500000000000000  0.2500000000000000   T   T   T
  0.5000000000000000 -0.0000000000000000  0.0000000000000000   T   T   T
  0.5000000000000000  0.5000000000000000  0.0000000000000000   T   T   T
  0.0000000000000000 -0.0000000000000000  0.0000000000000000   T   T   T
 
  0.00000000E+00  0.00000000E+00  0.00000000E+00
  0.00000000E+00  0.00000000E+00  0.00000000E+00
  0.00000000E+00  0.00000000E+00  0.00000000E+00
  0.00000000E+00  0.00000000E+00  0.00000000E+00
  0.00000000E+00  0.00000000E+00  0.00000000E+00
  0.00000000E+00  0.00000000E+00  0.00000000E+00
  0.00000000E+00  0.00000000E+00  0.00000000E+00
  0.00000000E+00  0.00000000E+00  0.00000000E+00
  0.00000000E+00  0.00000000E+00  0.00000000E+00
  0.00000000E+00  0.00000000E+00  0.00000000E+00
  0.00000000E+00  0.00000000E+00  0.00000000E+00
  0.00000000E+00  0.00000000E+00  0.00000000E+00
  0.00000000E+00  0.00000000E+00  0.00000000E+00
  0.00000000E+00  0.00000000E+00  0.00000000E+00
  0.00000000E+00  0.00000000E+00  0.00000000E+00
  0.00000000E+00  0.00000000E+00  0.00000000E+00
  0.00000000E+00  0.00000000E+00  0.00000000E+00
  0.00000000E+00  0.00000000E+00  0.00000000E+00
  0.00000000E+00  0.00000000E+00  0.00000000E+00
  0.00000000E+00  0.00000000E+00  0.00000000E+00
  0.00000000E+00  0.00000000E+00  0.00000000E+00
  0.00000000E+00  0.00000000E+00  0.00000000E+00
  0.00000000E+00  0.00000000E+00  0.00000000E+00
  0.00000000E+00  0.00000000E+00  0.00000000E+00
  0.00000000E+00  0.00000000E+00  0.00000000E+00
  0.00000000E+00  0.00000000E+00  0.00000000E+00
  0.00000000E+00  0.00000000E+00  0.00000000E+00
  0.00000000E+00  0.00000000E+00  0.00000000E+00
  0.00000000E+00  0.00000000E+00  0.00000000E+00
  0.00000000E+00  0.00000000E+00  0.00000000E+00
  0.00000000E+00  0.00000000E+00  0.00000000E+00
  0.00000000E+00  0.00000000E+00  0.00000000E+00
  0.00000000E+00  0.00000000E+00  0.00000000E+00
  0.00000000E+00  0.00000000E+00  0.00000000E+00
  0.00000000E+00  0.00000000E+00  0.00000000E+00
  0.00000000E+00  0.00000000E+00  0.00000000E+00
  0.00000000E+00  0.00000000E+00  0.00000000E+00
  0.00000000E+00  0.00000000E+00  0.00000000E+00
  0.00000000E+00  0.00000000E+00  0.00000000E+00
  0.00000000E+00  0.00000000E+00  0.00000000E+00
  0.00000000E+00  0.00000000E+00  0.00000000E+00
  0.00000000E+00  0.00000000E+00  0.00000000E+00
  0.00000000E+00  0.00000000E+00  0.00000000E+00
  0.00000000E+00  0.00000000E+00  0.00000000E+00
  0.00000000E+00  0.00000000E+00  0.00000000E+00
  0.00000000E+00  0.00000000E+00  0.00000000E+00
  0.00000000E+00  0.00000000E+00  0.00000000E+00
  0.00000000E+00  0.00000000E+00  0.00000000E+00
