SnO2                                    
   1.00000000000000     
     9.4320271667224951    0.0000000000000000    0.0000000000000000
     0.0000000000000000    9.4320271667224951    0.0000000000000000
     0.0000000000000000    0.0000000000000000    6.3058068431916565
   O    Sn
    32    15
Selective dynamics
Direct
  0.1019408199495730  0.8980591800504268  0.7284924313200668   T   T   T
  0.4016636974642840  0.5983363025357162  0.7492380678006103   T   T   T
  0.9036875629227876  0.5959545945963884  0.7498435499228995   T   T   T
  0.6480865492374892  0.1559831551692357  0.0000000000000000   T   T   T
  0.8440168448307642  0.3519134507625116  0.0000000000000000   T   T   T
  0.8980591800504268  0.1019408199495730  0.2715075686799331   T   T   T
  0.5983363025357162  0.4016636974642840  0.2507619321993896   T   T   T
  0.6399236319831749  0.1601750598837428  0.5000000000000000   T   T   T
  0.3600763680168250  0.8398249401162567  0.5000000000000000   T   T   T
  0.8398249401162567  0.3600763680168250  0.5000000000000000   T   T   T
  0.5983363025357162  0.4016636974642840  0.7492380678006103   T   T   T
  0.6482512246748863  0.6482512246748863  0.0000000000000000   T   T   T
  0.8397799043553386  0.8397799043553386  0.0000000000000000   T   T   T
  0.9036875629227876  0.5959545945963884  0.2501564500771009   T   T   T
  0.5959545945963884  0.9036875629227876  0.2501564500771009   T   T   T
  0.6529735705231722  0.6529735705231722  0.5000000000000000   T   T   T
  0.8427391133401704  0.8427391133401704  0.5000000000000000   T   T   T
  0.8980591800504268  0.1019408199495730  0.7284924313200668   T   T   T
  0.1601750598837428  0.6399236319831749  0.5000000000000000   T   T   T
  0.5959545945963884  0.9036875629227876  0.7498435499228995   T   T   T
  0.3470264294768278  0.3470264294768278  0.5000000000000000   T   T   T
  0.1019408199495730  0.8980591800504268  0.2715075686799331   T   T   T
  0.4016636974642840  0.5983363025357162  0.2507619321993896   T   T   T
  0.3519134507625116  0.8440168448307642  0.0000000000000000   T   T   T
  0.1572608866598298  0.1572608866598298  0.5000000000000000   T   T   T
  0.1602200956446614  0.1602200956446614  0.0000000000000000   T   T   T
  0.1559831551692357  0.6480865492374892  0.0000000000000000   T   T   T
  0.0963124370772123  0.4040454054036120  0.2501564500771009   T   T   T
  0.4040454054036120  0.0963124370772123  0.7498435499228995   T   T   T
  0.0963124370772123  0.4040454054036120  0.7498435499228995   T   T   T
  0.3517487753251142  0.3517487753251142  0.0000000000000000   T   T   T
  0.4040454054036120  0.0963124370772123  0.2501564500771009   T   T   T
  0.5000000000000000  0.5000000000000000  0.5000000000000000   T   T   T
  0.7533833025662617  0.7533833025662617  0.7543928799579098   T   T   T
  0.2466166974337380  0.2466166974337380  0.2456071200420898   T   T   T
  0.0000000000000000  0.0000000000000000  0.5000000000000000   T   T   T
  0.7533833025662617  0.7533833025662617  0.2456071200420898   T   T   T
  0.0000000000000000  0.5000000000000000  0.5000000000000000   T   T   T
  0.2466166974337380  0.2466166974337380  0.7543928799579098   T   T   T
  0.2438191346899495  0.7561808653100501  0.7480451799567926   T   T   T
  0.7561808653100501  0.2438191346899495  0.7480451799567926   T   T   T
  0.5000000000000000  0.0000000000000000  0.5000000000000000   T   T   T
  0.0000000000000000  0.5000000000000000  0.0000000000000000   T   T   T
  0.2438191346899495  0.7561808653100501  0.2519548200432072   T   T   T
  0.7561808653100501  0.2438191346899495  0.2519548200432072   T   T   T
  0.5000000000000000  0.0000000000000000  0.0000000000000000   T   T   T
  0.5000000000000000  0.5000000000000000  0.0000000000000000   T   T   T
 
  0.00000000E+00  0.00000000E+00  0.00000000E+00
  0.00000000E+00  0.00000000E+00  0.00000000E+00
  0.00000000E+00  0.00000000E+00  0.00000000E+00
  0.00000000E+00  0.00000000E+00  0.00000000E+00
  0.00000000E+00  0.00000000E+00  0.00000000E+00
  0.00000000E+00  0.00000000E+00  0.00000000E+00
  0.00000000E+00  0.00000000E+00  0.00000000E+00
  0.00000000E+00  0.00000000E+00  0.00000000E+00
  0.00000000E+00  0.00000000E+00  0.00000000E+00
  0.00000000E+00  0.00000000E+00  0.00000000E+00
  0.00000000E+00  0.00000000E+00  0.00000000E+00
  0.00000000E+00  0.00000000E+00  0.00000000E+00
  0.00000000E+00  0.00000000E+00  0.00000000E+00
  0.00000000E+00  0.00000000E+00  0.00000000E+00
  0.00000000E+00  0.00000000E+00  0.00000000E+00
  0.00000000E+00  0.00000000E+00  0.00000000E+00
  0.00000000E+00  0.00000000E+00  0.00000000E+00
  0.00000000E+00  0.00000000E+00  0.00000000E+00
  0.00000000E+00  0.00000000E+00  0.00000000E+00
  0.00000000E+00  0.00000000E+00  0.00000000E+00
  0.00000000E+00  0.00000000E+00  0.00000000E+00
  0.00000000E+00  0.00000000E+00  0.00000000E+00
  0.00000000E+00  0.00000000E+00  0.00000000E+00
  0.00000000E+00  0.00000000E+00  0.00000000E+00
  0.00000000E+00  0.00000000E+00  0.00000000E+00
  0.00000000E+00  0.00000000E+00  0.00000000E+00
  0.00000000E+00  0.00000000E+00  0.00000000E+00
  0.00000000E+00  0.00000000E+00  0.00000000E+00
  0.00000000E+00  0.00000000E+00  0.00000000E+00
  0.00000000E+00  0.00000000E+00  0.00000000E+00
  0.00000000E+00  0.00000000E+00  0.00000000E+00
  0.00000000E+00  0.00000000E+00  0.00000000E+00
  0.00000000E+00  0.00000000E+00  0.00000000E+00
  0.00000000E+00  0.00000000E+00  0.00000000E+00
  0.00000000E+00  0.00000000E+00  0.00000000E+00
  0.00000000E+00  0.00000000E+00  0.00000000E+00
  0.00000000E+00  0.00000000E+00  0.00000000E+00
  0.00000000E+00  0.00000000E+00  0.00000000E+00
  0.00000000E+00  0.00000000E+00  0.00000000E+00
  0.00000000E+00  0.00000000E+00  0.00000000E+00
  0.00000000E+00  0.00000000E+00  0.00000000E+00
  0.00000000E+00  0.00000000E+00  0.00000000E+00
  0.00000000E+00  0.00000000E+00  0.00000000E+00
  0.00000000E+00  0.00000000E+00  0.00000000E+00
  0.00000000E+00  0.00000000E+00  0.00000000E+00
  0.00000000E+00  0.00000000E+00  0.00000000E+00
  0.00000000E+00  0.00000000E+00  0.00000000E+00
