SnO2                                    
   1.00000000000000     
     9.4320271667224951    0.0000000000000000    0.0000000000000000
     0.0000000000000000    9.4320271667224951    0.0000000000000000
     0.0000000000000000    0.0000000000000000    6.3058068431916565
   O    Sn
    32    17
Selective dynamics
Direct
  0.0948647899346188  0.9114959961249631  0.7554586470455255   T   T   T
  0.3894876484842629  0.5851005491645296  0.7204940130186405   T   T   T
  0.8983765964046614  0.6010418656758183  0.7672012429456511   T   T   T
  0.6575318913790550  0.1475493028521159  0.0000000000000000   T   T   T
  0.8614428026118561  0.3420125109394062  0.0000000000000000   T   T   T
  0.9025802545413268  0.0992290466992244  0.2548939188000766   T   T   T
  0.6016234035953386  0.3989581343241878  0.2327987570543482   T   T   T
  0.6497786406882976  0.1560151788747171  0.5000000000000000   T   T   T
  0.3462866556475192  0.8514093022398467  0.5000000000000000   T   T   T
  0.8289430926109874  0.3508928950458817  0.5000000000000000   T   T   T
  0.6016234035953386  0.3989581343241878  0.7672012429456511   T   T   T
  0.6385571973881439  0.6579874890605929  0.0000000000000000   T   T   T
  0.8424681086209450  0.8524506971478770  0.0000000000000000   T   T   T
  0.8983765964046614  0.6010418656758183  0.2327987570543482   T   T   T
  0.5974197454586732  0.9007709533007621  0.2548939188000766   T   T   T
  0.6710569073890126  0.6491071049541265  0.5000000000000000   T   T   T
  0.8502213593117024  0.8439848211252826  0.5000000000000000   T   T   T
  0.9025802545413268  0.0992290466992244  0.7451060811999306   T   T   T
  0.1357620809630409  0.6715036738248694  0.5000000000000000   T   T   T
  0.5974197454586732  0.9007709533007621  0.7451060811999306   T   T   T
  0.3642379190369591  0.3284963261751297  0.5000000000000000   T   T   T
  0.0948647899346188  0.9114959961249631  0.2445413529544751   T   T   T
  0.3894876484842629  0.5851005491645296  0.2795059869813662   T   T   T
  0.3592743688019964  0.8443791738750951  0.0000000000000000   T   T   T
  0.1537133443524805  0.1485906977601588  0.5000000000000000   T   T   T
  0.1407256311980036  0.1556208261249046  0.0000000000000000   T   T   T
  0.1613757845759587  0.6555894056327307  0.0000000000000000   T   T   T
  0.1105123515157370  0.4148994508354780  0.2795059869813662   T   T   T
  0.4051352100653816  0.0885040038750439  0.7554586470455255   T   T   T
  0.1105123515157370  0.4148994508354780  0.7204940130186405   T   T   T
  0.3386242154240411  0.3444105943672688  0.0000000000000000   T   T   T
  0.4051352100653816  0.0885040038750439  0.2445413529544751   T   T   T
  0.5470322725562138  0.4868563815039367  0.5000000000000000   T   T   T
  0.7490015910806022  0.7560571890223807  0.7551228357925361   T   T   T
  0.2507150739642643  0.2280914701022939  0.2434603111415561   T   T   T
 -0.0042437716811596 -0.0005873821513670  0.5000000000000000   T   T   T
  0.7490015910806022  0.7560571890223807  0.2448771642074564   T   T   T
  0.9529677274437791  0.5131436184960576  0.5000000000000000   T   T   T
  0.2507150739642643  0.2280914701022939  0.7565396888584365   T   T   T
  0.2492849260357360  0.7719085298977125  0.7565396888584436   T   T   T
  0.7509984089193980  0.2439428109776199  0.7551228357925361   T   T   T
  0.5042437716811597  1.0005873821513671  0.5000000000000000   T   T   T
  0.0085790186920635  0.5010974312973242  0.0000000000000000   T   T   T
  0.2492849260357360  0.7719085298977125  0.2434603111415561   T   T   T
  0.7509984089193978  0.2439428109776198  0.2448771642074636   T   T   T
  0.5101884523708403  0.9959951288017063  0.0000000000000000   T   T   T
  0.4914209813079363  0.4989025687026688  0.0000000000000000   T   T   T
  0.9898115476291668  0.0040048711982929  0.0000000000000000   T   T   T
  0.2500000000000000  0.5000000000000000  0.5000000000000000   T   T   T
 
  0.00000000E+00  0.00000000E+00  0.00000000E+00
  0.00000000E+00  0.00000000E+00  0.00000000E+00
  0.00000000E+00  0.00000000E+00  0.00000000E+00
  0.00000000E+00  0.00000000E+00  0.00000000E+00
  0.00000000E+00  0.00000000E+00  0.00000000E+00
  0.00000000E+00  0.00000000E+00  0.00000000E+00
  0.00000000E+00  0.00000000E+00  0.00000000E+00
  0.00000000E+00  0.00000000E+00  0.00000000E+00
  0.00000000E+00  0.00000000E+00  0.00000000E+00
  0.00000000E+00  0.00000000E+00  0.00000000E+00
  0.00000000E+00  0.00000000E+00  0.00000000E+00
  0.00000000E+00  0.00000000E+00  0.00000000E+00
  0.00000000E+00  0.00000000E+00  0.00000000E+00
  0.00000000E+00  0.00000000E+00  0.00000000E+00
  0.00000000E+00  0.00000000E+00  0.00000000E+00
  0.00000000E+00  0.00000000E+00  0.00000000E+00
  0.00000000E+00  0.00000000E+00  0.00000000E+00
  0.00000000E+00  0.00000000E+00  0.00000000E+00
  0.00000000E+00  0.00000000E+00  0.00000000E+00
  0.00000000E+00  0.00000000E+00  0.00000000E+00
  0.00000000E+00  0.00000000E+00  0.00000000E+00
  0.00000000E+00  0.00000000E+00  0.00000000E+00
  0.00000000E+00  0.00000000E+00  0.00000000E+00
  0.00000000E+00  0.00000000E+00  0.00000000E+00
  0.00000000E+00  0.00000000E+00  0.00000000E+00
  0.00000000E+00  0.00000000E+00  0.00000000E+00
  0.00000000E+00  0.00000000E+00  0.00000000E+00
  0.00000000E+00  0.00000000E+00  0.00000000E+00
  0.00000000E+00  0.00000000E+00  0.00000000E+00
  0.00000000E+00  0.00000000E+00  0.00000000E+00
  0.00000000E+00  0.00000000E+00  0.00000000E+00
  0.00000000E+00  0.00000000E+00  0.00000000E+00
  0.00000000E+00  0.00000000E+00  0.00000000E+00
  0.00000000E+00  0.00000000E+00  0.00000000E+00
  0.00000000E+00  0.00000000E+00  0.00000000E+00
  0.00000000E+00  0.00000000E+00  0.00000000E+00
  0.00000000E+00  0.00000000E+00  0.00000000E+00
  0.00000000E+00  0.00000000E+00  0.00000000E+00
  0.00000000E+00  0.00000000E+00  0.00000000E+00
  0.00000000E+00  0.00000000E+00  0.00000000E+00
  0.00000000E+00  0.00000000E+00  0.00000000E+00
  0.00000000E+00  0.00000000E+00  0.00000000E+00
  0.00000000E+00  0.00000000E+00  0.00000000E+00
  0.00000000E+00  0.00000000E+00  0.00000000E+00
  0.00000000E+00  0.00000000E+00  0.00000000E+00
  0.00000000E+00  0.00000000E+00  0.00000000E+00
  0.00000000E+00  0.00000000E+00  0.00000000E+00
  0.00000000E+00  0.00000000E+00  0.00000000E+00
  0.00000000E+00  0.00000000E+00  0.00000000E+00
