SnO2                                    
   1.00000000000000     
     9.4320271667224951    0.0000000000000000    0.0000000000000000
     0.0000000000000000    9.4320271667224951    0.0000000000000000
     0.0000000000000000    0.0000000000000000    6.3058068431916565
   O    Sn   H 
    32    16     1
Selective dynamics
Direct
  0.0971618101053713  0.9026556008995690  0.7453040223247254   T   T   T
  0.4063858785154950  0.6008990931797621  0.7515280166031676   T   T   T
  0.9019350413983899  0.5959859471754606  0.7494731406245185   T   T   T
  0.6534819206643385  0.1523745267192473  0.9982216452373490   T   T   T
  0.8487310425555230  0.3462327392623177  0.0012237007516904   T   T   T
  0.9033418354824978  0.0951591847269611  0.2431251824818106   T   T   T
  0.5953996118210023  0.4015915080429276  0.2512352140134901   T   T   T
  0.6524008189357980  0.1534420033370117  0.5008996307908665   T   T   T
  0.3460923503543112  0.8488457021485973  0.4980478377427107   T   T   T
  0.8493662569936159  0.3454041536867056  0.4980022017119346   T   T   T
  0.6014006688665030  0.4061646663584180  0.7514658865170912   T   T   T
  0.6529891066035688  0.6530537707221776  0.0013158753621435   T   T   T
  0.8416005350200961  0.8411743352660540  0.9972748748295607   T   T   T
  0.9027183450903608  0.5967323545984128  0.2507797341342694   T   T   T
  0.5971371092751147  0.9030044380423453  0.2506528428438978   T   T   T
  0.6534416511702320  0.6537812467298303  0.4981706703605556   T   T   T
  0.8469405698967010  0.8468302159433745  0.4992002052930493   T   T   T
  0.9028748246944736  0.0965993538462275  0.7455065186272976   T   T   T
  0.1537092658392185  0.6520770569596379  0.5008576356817894   T   T   T
  0.5963550149851303  0.9021844603331320  0.7497062262166748   T   T   T
  0.3549678218504088  0.3548077588969671  0.5171163238588784   T   T   T
  0.0957078295258955  0.9031682885528748  0.2434334286692551   T   T   T
  0.4017589864942121  0.5948294694536262  0.2510462158031314   T   T   T
  0.3466715431387284  0.8484421705240548  0.0012029087879001   T   T   T
  0.1567704945014605  0.1568592242907032  0.4934828909436482   T   T   T
  0.1452686701642119  0.1451045633328117  0.0141503564990182   T   T   T
  0.1523427967634810  0.6535392960470666  0.9981905820939139   T   T   T
  0.1026018598482612  0.4044268948141028  0.2504063537713983   T   T   T
  0.3992068368067692  0.0966535128871413  0.7532003030174864   T   T   T
  0.0967639085295514  0.3991600764234091  0.7533472700312500   T   T   T
  0.3492435282175458  0.3488681441280322  0.9960977833412721   T   T   T
  0.4045629762220295  0.1024740768752719  0.2505160678923856   T   T   T
  0.5049772600404736  0.5046935284736910  0.5027854361568612   T   T   T
  0.7477030382711166  0.7476613535967077  0.7471228901289485   T   T   T
  0.2712151779963264  0.2709476442644838  0.2638955920610693   T   T   T
  0.0003811459450795  1.0001310443347260  0.4951988983318677   T   T   T
  0.7492486071731319  0.7492025094853432  0.2510858679813220   T   T   T
  0.0005217629588518  0.4996828467317393  0.5006477389776186   T   T   T
  0.2510959352238109  0.2510290719163596  0.7507039299123091   T   T   T
  0.2515877340910930  0.7505184064835554  0.7494942967545347   T   T   T
  0.7508588276852631  0.2511441359915796  0.7495180336082328   T   T   T
  0.4999136051363182  0.0003860491254638  0.5006854493111127   T   T   T
  0.9997391761977802  0.5005005507101262  0.0008471453305176   T   T   T
  0.2497370066899877  0.7494375008344154  0.2493443456538527   T   T   T
  0.7497277311639758  0.2493152569713518  0.2493396116230766   T   T   T
  0.5005609340632075 -0.0002857350425002  0.0008682786269068   T   T   T
  0.5031252363356394  0.5027633876532035 -0.0000254005405402   T   T   T
  0.9873742007795826  0.9866906432836793  0.9889051458425899   T   T   T
  0.1229016899180256  0.1236559909818524  0.1654012133816219   T   T   T
 
  0.00000000E+00  0.00000000E+00  0.00000000E+00
  0.00000000E+00  0.00000000E+00  0.00000000E+00
  0.00000000E+00  0.00000000E+00  0.00000000E+00
  0.00000000E+00  0.00000000E+00  0.00000000E+00
  0.00000000E+00  0.00000000E+00  0.00000000E+00
  0.00000000E+00  0.00000000E+00  0.00000000E+00
  0.00000000E+00  0.00000000E+00  0.00000000E+00
  0.00000000E+00  0.00000000E+00  0.00000000E+00
  0.00000000E+00  0.00000000E+00  0.00000000E+00
  0.00000000E+00  0.00000000E+00  0.00000000E+00
  0.00000000E+00  0.00000000E+00  0.00000000E+00
  0.00000000E+00  0.00000000E+00  0.00000000E+00
  0.00000000E+00  0.00000000E+00  0.00000000E+00
  0.00000000E+00  0.00000000E+00  0.00000000E+00
  0.00000000E+00  0.00000000E+00  0.00000000E+00
  0.00000000E+00  0.00000000E+00  0.00000000E+00
  0.00000000E+00  0.00000000E+00  0.00000000E+00
  0.00000000E+00  0.00000000E+00  0.00000000E+00
  0.00000000E+00  0.00000000E+00  0.00000000E+00
  0.00000000E+00  0.00000000E+00  0.00000000E+00
  0.00000000E+00  0.00000000E+00  0.00000000E+00
  0.00000000E+00  0.00000000E+00  0.00000000E+00
  0.00000000E+00  0.00000000E+00  0.00000000E+00
  0.00000000E+00  0.00000000E+00  0.00000000E+00
  0.00000000E+00  0.00000000E+00  0.00000000E+00
  0.00000000E+00  0.00000000E+00  0.00000000E+00
  0.00000000E+00  0.00000000E+00  0.00000000E+00
  0.00000000E+00  0.00000000E+00  0.00000000E+00
  0.00000000E+00  0.00000000E+00  0.00000000E+00
  0.00000000E+00  0.00000000E+00  0.00000000E+00
  0.00000000E+00  0.00000000E+00  0.00000000E+00
  0.00000000E+00  0.00000000E+00  0.00000000E+00
  0.00000000E+00  0.00000000E+00  0.00000000E+00
  0.00000000E+00  0.00000000E+00  0.00000000E+00
  0.00000000E+00  0.00000000E+00  0.00000000E+00
  0.00000000E+00  0.00000000E+00  0.00000000E+00
  0.00000000E+00  0.00000000E+00  0.00000000E+00
  0.00000000E+00  0.00000000E+00  0.00000000E+00
  0.00000000E+00  0.00000000E+00  0.00000000E+00
  0.00000000E+00  0.00000000E+00  0.00000000E+00
  0.00000000E+00  0.00000000E+00  0.00000000E+00
  0.00000000E+00  0.00000000E+00  0.00000000E+00
  0.00000000E+00  0.00000000E+00  0.00000000E+00
  0.00000000E+00  0.00000000E+00  0.00000000E+00
  0.00000000E+00  0.00000000E+00  0.00000000E+00
  0.00000000E+00  0.00000000E+00  0.00000000E+00
  0.00000000E+00  0.00000000E+00  0.00000000E+00
  0.00000000E+00  0.00000000E+00  0.00000000E+00
  0.00000000E+00  0.00000000E+00  0.00000000E+00
