SnO2                                    
   1.00000000000000     
     9.4320271667224951    0.0000000000000000    0.0000000000000000
     0.0000000000000000    9.4320271667224951    0.0000000000000000
     0.0000000000000000    0.0000000000000000    6.3058068431916565
   O    Sn
    32    17
Selective dynamics
Direct
  0.0928696672684530  0.9143185353709485  0.7526730306379098   T   T   T
  0.3699496758828028  0.5993878062834529  0.7675122130139052   T   T   T
  0.8908534194176205  0.5935445379590047  0.7750613717239681   T   T   T
  0.6564262985775327  0.1499370946998229  0.0000000000000000   T   T   T
  0.8665379111483844  0.3360649376739117  0.0000000000000000   T   T   T
  0.8951225421904048  0.0953497512232365  0.2523578725959291   T   T   T
  0.6091465805823795  0.4064554620410020  0.2249386282760318   T   T   T
  0.6476494726698689  0.1587312655474267  0.5000000000000000   T   T   T
  0.3568616356117861  0.8546175117455262  0.5000000000000000   T   T   T
  0.8306380487908577  0.3452827400328294  0.5000000000000000   T   T   T
  0.6091465805823795  0.4064554620410020  0.7750613717239681   T   T   T
  0.6334620888516156  0.6639350623260882  0.0000000000000000   T   T   T
  0.8435737014224673  0.8500629053001699  0.0000000000000000   T   T   T
  0.8908534194176205  0.5935445379590047  0.2249386282760318   T   T   T
  0.6048774578095952  0.9046502487767494  0.2523578725959291   T   T   T
  0.6693619512091423  0.6547172599671778  0.5000000000000000   T   T   T
  0.8523505273301311  0.8412687344525734  0.5000000000000000   T   T   T
  0.8951225421904048  0.0953497512232365  0.7476421274040778   T   T   T
  0.1540184447710565  0.6920927449243517  0.5000000000000000   T   T   T
  0.6048774578095952  0.9046502487767494  0.7476421274040778   T   T   T
  0.3459815552289434  0.3079072550756483  0.5000000000000000   T   T   T
  0.0928696672684530  0.9143185353709485  0.2473269693620904   T   T   T
  0.3699496758828028  0.5993878062834529  0.2324877869861021   T   T   T
  0.3516506722673611  0.8607746111054796  0.0000000000000000   T   T   T
  0.1431383643882140  0.1453824882544812  0.5000000000000000   T   T   T
  0.1483493277326389  0.1392253888945206  0.0000000000000000   T   T   T
  0.1376774536639189  0.6783758946751646  0.0000000000000000   T   T   T
  0.1300503241171974  0.4006121937165542  0.2324877869861021   T   T   T
  0.4071303327315471  0.0856814646290583  0.7526730306379098   T   T   T
  0.1300503241171974  0.4006121937165542  0.7675122130139052   T   T   T
  0.3623225463360813  0.3216241053248357  0.0000000000000000   T   T   T
  0.4071303327315471  0.0856814646290583  0.2473269693620904   T   T   T
  0.5387096971526283  0.4901094926789903  0.5000000000000000   T   T   T
  0.7495882127895900  0.7510345540870861  0.7564490514390019   T   T   T
  0.2502356552795080  0.2242265451403729  0.2418175941520158   T   T   T
 -0.0082953162508958 -0.0006240444702399  0.5000000000000000   T   T   T
  0.7495882127895900  0.7510345540870861  0.2435509485609913   T   T   T
  0.9612903028473646  0.5098905073210024  0.5000000000000000   T   T   T
  0.2502356552795080  0.2242265451403729  0.7581824058479767   T   T   T
  0.2497643447204919  0.7757734548596346  0.7581824058479838   T   T   T
  0.7504117872104100  0.2489654459129139  0.7564490514390018   T   T   T
  0.5082953162508956  0.0006240444702400  0.5000000000000000   T   T   T
  0.0150802495650537  0.4997091107982704  0.0000000000000000   T   T   T
  0.2497643447204919  0.7757734548596346  0.2418175941520158   T   T   T
  0.7504117872104100  0.2489654459129139  0.2435509485609984   T   T   T
  0.5112672907062028  0.9985918925564891  0.0000000000000000   T   T   T
  0.4849197504349460  0.5002908892017226  0.0000000000000000   T   T   T
  0.9887327092938043  0.0014081074435109  0.0000000000000000   T   T   T
  0.2500000000000000  0.5000000000000000  0.5000000000000000   T   T   T
 
  0.00000000E+00  0.00000000E+00  0.00000000E+00
  0.00000000E+00  0.00000000E+00  0.00000000E+00
  0.00000000E+00  0.00000000E+00  0.00000000E+00
  0.00000000E+00  0.00000000E+00  0.00000000E+00
  0.00000000E+00  0.00000000E+00  0.00000000E+00
  0.00000000E+00  0.00000000E+00  0.00000000E+00
  0.00000000E+00  0.00000000E+00  0.00000000E+00
  0.00000000E+00  0.00000000E+00  0.00000000E+00
  0.00000000E+00  0.00000000E+00  0.00000000E+00
  0.00000000E+00  0.00000000E+00  0.00000000E+00
  0.00000000E+00  0.00000000E+00  0.00000000E+00
  0.00000000E+00  0.00000000E+00  0.00000000E+00
  0.00000000E+00  0.00000000E+00  0.00000000E+00
  0.00000000E+00  0.00000000E+00  0.00000000E+00
  0.00000000E+00  0.00000000E+00  0.00000000E+00
  0.00000000E+00  0.00000000E+00  0.00000000E+00
  0.00000000E+00  0.00000000E+00  0.00000000E+00
  0.00000000E+00  0.00000000E+00  0.00000000E+00
  0.00000000E+00  0.00000000E+00  0.00000000E+00
  0.00000000E+00  0.00000000E+00  0.00000000E+00
  0.00000000E+00  0.00000000E+00  0.00000000E+00
  0.00000000E+00  0.00000000E+00  0.00000000E+00
  0.00000000E+00  0.00000000E+00  0.00000000E+00
  0.00000000E+00  0.00000000E+00  0.00000000E+00
  0.00000000E+00  0.00000000E+00  0.00000000E+00
  0.00000000E+00  0.00000000E+00  0.00000000E+00
  0.00000000E+00  0.00000000E+00  0.00000000E+00
  0.00000000E+00  0.00000000E+00  0.00000000E+00
  0.00000000E+00  0.00000000E+00  0.00000000E+00
  0.00000000E+00  0.00000000E+00  0.00000000E+00
  0.00000000E+00  0.00000000E+00  0.00000000E+00
  0.00000000E+00  0.00000000E+00  0.00000000E+00
  0.00000000E+00  0.00000000E+00  0.00000000E+00
  0.00000000E+00  0.00000000E+00  0.00000000E+00
  0.00000000E+00  0.00000000E+00  0.00000000E+00
  0.00000000E+00  0.00000000E+00  0.00000000E+00
  0.00000000E+00  0.00000000E+00  0.00000000E+00
  0.00000000E+00  0.00000000E+00  0.00000000E+00
  0.00000000E+00  0.00000000E+00  0.00000000E+00
  0.00000000E+00  0.00000000E+00  0.00000000E+00
  0.00000000E+00  0.00000000E+00  0.00000000E+00
  0.00000000E+00  0.00000000E+00  0.00000000E+00
  0.00000000E+00  0.00000000E+00  0.00000000E+00
  0.00000000E+00  0.00000000E+00  0.00000000E+00
  0.00000000E+00  0.00000000E+00  0.00000000E+00
  0.00000000E+00  0.00000000E+00  0.00000000E+00
  0.00000000E+00  0.00000000E+00  0.00000000E+00
  0.00000000E+00  0.00000000E+00  0.00000000E+00
  0.00000000E+00  0.00000000E+00  0.00000000E+00
